35
Coordinates from ORCA-job Catechin E -1030.734598611410
  O       0.409409      0.672425     -0.288272
  O      -0.637685     -2.892924      0.004882
  O       4.392049     -1.946700      0.409747
  O       4.658272      2.766367     -0.113298
  O      -4.164861      1.087972      2.081594
  O      -5.839019      0.796514     -0.063551
  C       0.093280     -1.704130      0.324135
  C      -0.322579     -0.529201     -0.583522
  C       1.582505     -1.977880      0.126438
  C       2.384496     -0.712357      0.075177
  C       1.760906      0.519263     -0.146907
  C      -1.796480     -0.174698     -0.436087
  C       3.778177     -0.741199      0.210801
  C       2.508220      1.698232     -0.199304
  C      -2.309753      0.309969      0.780235
  C      -2.668991     -0.318740     -1.527805
  C       4.534431      0.427407      0.148352
  C       3.890008      1.640587     -0.055896
  C      -3.663166      0.626923      0.896397
  C      -4.023248      0.006746     -1.409281
  C      -4.516771      0.476500     -0.195133
  H      -0.093613     -1.456099      1.376641
  H      -0.133920     -0.790673     -1.634444
  H       1.740047     -2.536126     -0.805649
  H       1.927630     -2.625793      0.941783
  H       1.996813      2.641932     -0.360542
  H      -1.642737      0.442181      1.627225
  H      -0.401828     -3.566305      0.666644
  H      -2.297969     -0.690400     -2.480859
  H       5.614097      0.412925      0.255035
  H      -4.672816     -0.114471     -2.270198
  H       5.350858     -1.799265      0.475568
  H       4.078649      3.529272     -0.277775
  H      -3.448341      1.125064      2.732740
  H      -6.286571      0.632683     -0.907276
35
Coordinates from ORCA-job Catechin E -1030.739874963252
  O       0.423031      0.648862     -0.265372
  O      -0.689560     -2.840661     -0.027056
  O       4.398897     -1.956932      0.368901
  O       4.673849      2.786107     -0.054742
  O      -4.173918      1.170177      2.044533
  O      -5.848470      0.786476     -0.031617
  C       0.102557     -1.704086      0.313100
  C      -0.330946     -0.538740     -0.583397
  C       1.594494     -1.993853      0.102689
  C       2.405738     -0.721779      0.060603
  C       1.780595      0.515341     -0.128902
  C      -1.800480     -0.184644     -0.446398
  C       3.801747     -0.738474      0.192688
  C       2.517178      1.705986     -0.165288
  C      -2.306463      0.336623      0.753519
  C      -2.675913     -0.371224     -1.518632
  C       4.556270      0.436431      0.155189
  C       3.902969      1.656942     -0.022691
  C      -3.658734      0.657666      0.884426
  C      -4.031711     -0.054966     -1.392945
  C      -4.529143      0.459666     -0.194392
  H      -0.076262     -1.433297      1.364460
  H      -0.128997     -0.806713     -1.629674
  H       1.719806     -2.549512     -0.837186
  H       1.951880     -2.656720      0.902645
  H       1.994742      2.648159     -0.310101
  H      -1.630536      0.509269      1.588347
  H      -0.474890     -3.535667      0.612700
  H      -2.308344     -0.773161     -2.459055
  H       5.638207      0.422683      0.260717
  H      -4.695408     -0.211053     -2.240650
  H       5.355825     -1.822136      0.444781
  H       4.096251      3.551629     -0.199041
  H      -3.457552      1.245442      2.692234
  H      -6.317210      0.592161     -0.856795
35
Coordinates from ORCA-job Catechin E -1030.741058192652
  O       0.426082      0.635129     -0.252528
  O      -0.705967     -2.823569     -0.078918
  O       4.394991     -1.965046      0.328820
  O       4.665556      2.794667      0.035958
  O      -4.143097      1.300143      1.992480
  O      -5.842300      0.777324      0.008800
  C       0.109914     -1.715226      0.284639
  C      -0.335615     -0.542445     -0.596178
  C       1.599160     -2.007881      0.062791
  C       2.409216     -0.731057      0.040702
  C       1.783238      0.510967     -0.117308
  C      -1.797654     -0.186456     -0.461901
  C       3.806093     -0.737307      0.181646
  C       2.508689      1.709470     -0.120738
  C      -2.282977      0.399122      0.715012
  C      -2.690723     -0.444152     -1.499418
  C       4.555470      0.440522      0.180076
  C       3.894127      1.664727      0.031420
  C      -3.631177      0.719509      0.863939
  C      -4.046183     -0.134379     -1.357970
  C      -4.529044      0.446441     -0.184649
  H      -0.061670     -1.437738      1.337308
  H      -0.124400     -0.805916     -1.642464
  H       1.702257     -2.552950     -0.886556
  H       1.968985     -2.684006      0.845135
  H       1.978280      2.649622     -0.246890
  H      -1.591277      0.632162      1.523056
  H      -0.490560     -3.548957      0.527323
  H      -2.337984     -0.898161     -2.421160
  H       5.636709      0.427945      0.291150
  H      -4.734327     -0.344505     -2.175377
  H       5.351997     -1.839244      0.422769
  H       4.088218      3.564144     -0.087100
  H      -3.417179      1.430521      2.622227
  H      -6.337345      0.532581     -0.788497
35
Coordinates from ORCA-job Catechin E -1030.741351768746
  O       0.425595      0.635530     -0.244135
  O      -0.705381     -2.825928     -0.124667
  O       4.391234     -1.971438      0.299244
  O       4.659811      2.792632      0.110621
  O      -4.112289      1.411730      1.945675
  O      -5.839588      0.764844      0.035592
  C       0.110829     -1.724450      0.255877
  C      -0.336052     -0.535931     -0.608972
  C       1.598577     -2.012207      0.025463
  C       2.406539     -0.734874      0.026931
  C       1.781202      0.510477     -0.106404
  C      -1.796206     -0.181854     -0.471638
  C       3.803741     -0.739670      0.175423
  C       2.503561      1.710613     -0.081342
  C      -2.264758      0.460741      0.683074
  C      -2.706714     -0.506465     -1.474281
  C       4.551002      0.437545      0.203454
  C       3.887581      1.663961      0.077455
  C      -3.611194      0.775487      0.843284
  C      -4.062505     -0.203054     -1.320223
  C      -4.529162      0.435069     -0.172149
  H      -0.058427     -1.454912      1.311343
  H      -0.119874     -0.787033     -1.657639
  H       1.694348     -2.541545     -0.933715
  H       1.974671     -2.701092      0.793212
  H       1.970994      2.651262     -0.191688
  H      -1.560190      0.746278      1.462620
  H      -0.476072     -3.572072      0.450956
  H      -2.367280     -1.007049     -2.376559
  H       5.631457      0.423768      0.319442
  H      -4.768633     -0.462490     -2.107948
  H       5.347441     -1.849759      0.407633
  H       4.083447      3.565498      0.004056
  H      -3.376840      1.588764      2.553118
  H      -6.351366      0.473625     -0.735510
35
Coordinates from ORCA-job Catechin E -1030.741572445852
  O       0.425815      0.642687     -0.232729
  O      -0.704736     -2.824071     -0.189126
  O       4.386364     -1.981638      0.260240
  O       4.658364      2.783032      0.208756
  O      -4.077207      1.556769      1.874938
  O      -5.840441      0.737965      0.070037
  C       0.108692     -1.730551      0.214215
  C      -0.334810     -0.518635     -0.626577
  C       1.595105     -2.012490     -0.025869
  C       2.402599     -0.737760      0.010877
  C       1.779728      0.511443     -0.090545
  C      -1.795489     -0.170522     -0.482463
  C       3.799818     -0.746129      0.168334
  C       2.502094      1.710429     -0.026537
  C      -2.245100      0.547969      0.636246
  C      -2.726547     -0.588493     -1.430481
  C       4.546903      0.428003      0.234587
  C       3.884128      1.657685      0.139150
  C      -3.591399      0.849271      0.810508
  C      -4.083670     -0.298123     -1.259725
  C      -4.531119      0.415752     -0.151216
  H      -0.060949     -1.478096      1.273822
  H      -0.113131     -0.748404     -1.679187
  H       1.686346     -2.517036     -0.998884
  H       1.974870     -2.720423      0.722467
  H       1.969374      2.653100     -0.114867
  H      -1.525392      0.903135      1.371452
  H      -0.451587     -3.594840      0.342522
  H      -2.402036     -1.151386     -2.300783
  H       5.626446      0.410437      0.356106
  H      -4.809320     -0.626965     -2.002605
  H       5.341141     -1.865003      0.386343
  H       4.084264      3.560481      0.124045
  H      -3.330165      1.796796      2.445749
  H      -6.369454      0.381611     -0.661199
35
Coordinates from ORCA-job Catechin E -1030.741672672938
  O       0.426636      0.648899     -0.220137
  O      -0.705044     -2.819679     -0.239489
  O       4.384455     -1.989852      0.229483
  O       4.660206      2.773375      0.278638
  O      -4.060218      1.663492      1.814632
  O      -5.844744      0.716071      0.091895
  C       0.106609     -1.733329      0.182712
  C      -0.333653     -0.502780     -0.635798
  C       1.592714     -2.011194     -0.064017
  C       2.401238     -0.739422      0.001002
  C       1.780066      0.511831     -0.076209
  C      -1.796659     -0.161384     -0.484567
  C       3.798202     -0.752748      0.162077
  C       2.503779      1.708529      0.015697
  C      -2.236401      0.613756      0.600457
  C      -2.738522     -0.648006     -1.388589
  C       4.546147      0.418690      0.255058
  C       3.884898      1.650685      0.183599
  C      -3.584262      0.903534      0.782467
  C      -4.096765     -0.368240     -1.208444
  C      -4.534340      0.401581     -0.134217
  H      -0.064479     -1.499328      1.246194
  H      -0.109966     -0.712626     -1.692196
  H       1.683366     -2.494308     -1.047926
  H       1.972450     -2.735178      0.669042
  H       1.971661      2.653038     -0.054746
  H      -1.508041      1.019565      1.299288
  H      -0.430079     -3.607256      0.255363
  H      -2.421271     -1.256882     -2.229945
  H       5.625330      0.397821      0.378794
  H      -4.831607     -0.749282     -1.916419
  H       5.338135     -1.876294      0.365988
  H       4.087515      3.553489      0.210416
  H      -3.306452      1.948683      2.354873
  H      -6.381404      0.310748     -0.607375
35
Coordinates from ORCA-job Catechin E -1030.741715123238
  O       0.426747      0.650094     -0.209051
  O      -0.704225     -2.818873     -0.267234
  O       4.385544     -1.993858      0.211835
  O       4.660763      2.768799      0.311943
  O      -4.056172      1.721555      1.779747
  O      -5.849264      0.709097      0.097674
  C       0.106256     -1.736400      0.166725
  C      -0.333575     -0.495349     -0.636240
  C       1.592743     -2.011267     -0.083295
  C       2.401928     -0.740671     -0.002326
  C       1.780538      0.510875     -0.066230
  C      -1.798654     -0.158252     -0.479071
  C       3.798594     -0.756786      0.158061
  C       2.504692      1.706314      0.038696
  C      -2.235408      0.647702      0.583889
  C      -2.743894     -0.679015     -1.360998
  C       4.546753      0.413991      0.263311
  C       3.885987      1.646768      0.205321
  C      -3.585092      0.933091      0.766435
  C      -4.102397     -0.402934     -1.179848
  C      -4.537252      0.397632     -0.126179
  H      -0.065773     -1.516704      1.233015
  H      -0.111304     -0.691526     -1.695603
  H       1.685089     -2.481004     -1.073500
  H       1.971141     -2.744882      0.641015
  H       1.972652      2.651671     -0.021294
  H      -1.503825      1.078366      1.263804
  H      -0.412549     -3.614915      0.203878
  H      -2.428490     -1.312533     -2.184452
  H       5.626061      0.392025      0.386402
  H      -4.838736     -0.811079     -1.870824
  H       5.338831     -1.880698      0.350973
  H       4.087916      3.549416      0.252157
  H      -3.299398      2.027247      2.304065
  H      -6.386726      0.278103     -0.585201
35
Coordinates from ORCA-job Catechin E -1030.741720425142
  O       0.426237      0.648135     -0.203887
  O      -0.703372     -2.820395     -0.274953
  O       4.386978     -1.994359      0.207754
  O       4.659513      2.768941      0.317903
  O      -4.056027      1.737691      1.770872
  O      -5.851158      0.712132      0.095684
  C       0.106836     -1.738757      0.163132
  C      -0.334200     -0.495355     -0.634058
  C       1.593728     -2.012320     -0.087027
  C       2.402877     -0.741341     -0.001818
  C       1.780430      0.509826     -0.062477
  C      -1.799840     -0.158964     -0.474208
  C       3.799331     -0.757707      0.157183
  C       2.504006      1.705291      0.044259
  C      -2.236279      0.654884      0.581672
  C      -2.745471     -0.686720     -1.352294
  C       4.546993      0.413743      0.264219
  C       3.885806      1.646358      0.209548
  C      -3.586835      0.941252      0.762431
  C      -4.103539     -0.409694     -1.172970
  C      -4.538415      0.399695     -0.125000
  H      -0.065496     -1.524999      1.230610
  H      -0.114103     -0.686585     -1.694806
  H       1.688010     -2.477909     -1.079016
  H       1.970893     -2.748714      0.635120
  H       1.971708      2.650739     -0.012887
  H      -1.504147      1.089919      1.258194
  H      -0.403193     -3.618777      0.186804
  H      -2.430167     -1.326914     -2.170501
  H       5.626486      0.392196      0.386402
  H      -4.838834     -0.824185     -1.861248
  H       5.340354     -1.880431      0.345512
  H       4.085891      3.549026      0.259348
  H      -3.298090      2.045442      2.292172
  H      -6.387410      0.274857     -0.584069
35
Coordinates from ORCA-job Catechin E -1030.741730497790
  O       0.426018      0.647035     -0.202478
  O      -0.703374     -2.820949     -0.276034
  O       4.387227     -1.994274      0.207854
  O       4.658842      2.769407      0.317748
  O      -4.055980      1.739904      1.770062
  O      -5.851480      0.714152      0.094760
  C       0.107120     -1.739416      0.162986
  C      -0.334617     -0.496210     -0.633150
  C       1.594057     -2.012812     -0.086719
  C       2.403138     -0.741509     -0.001187
  C       1.780268      0.509588     -0.061626
  C      -1.800072     -0.159237     -0.473055
  C       3.799523     -0.757664      0.157412
  C       2.503453      1.705167      0.044630
  C      -2.236534      0.655119      0.581775
  C      -2.745820     -0.687374     -1.351233
  C       4.546910      0.414127      0.264137
  C       3.885490      1.646600      0.209616
  C      -3.587257      0.942335      0.762091
  C      -4.103548     -0.409704     -1.172397
  C      -4.538653      0.400890     -0.125050
  H      -0.065140     -1.526826      1.230750
  H      -0.115364     -0.686719     -1.694212
  H       1.689131     -2.477967     -1.078861
  H       1.970688     -2.749417      0.635447
  H       1.971189      2.650653     -0.012290
  H      -1.504475      1.090095      1.258490
  H      -0.399798     -3.620096      0.182249
  H      -2.430507     -1.328456     -2.168725
  H       5.626453      0.392793      0.386088
  H      -4.838370     -0.824795     -1.860854
  H       5.340779     -1.880186      0.344308
  H       4.084948      3.549241      0.258581
  H      -3.297591      2.046412      2.291468
  H      -6.387152      0.276090     -0.584980
35
Coordinates from ORCA-job Catechin E -1030.741717469695
  O       0.425923      0.646716     -0.201947
  O      -0.703443     -2.821184     -0.275256
  O       4.387117     -1.994240      0.208082
  O       4.658699      2.769504      0.317036
  O      -4.056217      1.739607      1.770384
  O      -5.851588      0.714929      0.094218
  C       0.107227     -1.739488      0.163629
  C      -0.334825     -0.496678     -0.632610
  C       1.594060     -2.012923     -0.086041
  C       2.403100     -0.741525     -0.000915
  C       1.780140      0.509631     -0.061442
  C      -1.800111     -0.159263     -0.472839
  C       3.799497     -0.757567      0.157458
  C       2.503236      1.705216      0.044369
  C      -2.236752      0.654622      0.582082
  C      -2.745850     -0.686915     -1.351540
  C       4.546835      0.414272      0.263829
  C       3.885363      1.646687      0.209184
  C      -3.587461      0.942217      0.762246
  C      -4.103431     -0.408932     -1.172875
  C      -4.538780      0.401360     -0.125334
  H      -0.064766     -1.526857      1.231436
  H      -0.115668     -0.687385     -1.693659
  H       1.689280     -2.478327     -1.078068
  H       1.970648     -2.749277      0.636383
  H       1.971148      2.650790     -0.012604
  H      -1.504960      1.089305      1.259312
  H      -0.397696     -3.620788      0.180833
  H      -2.430431     -1.327759     -2.169174
  H       5.626389      0.392929      0.385663
  H      -4.838071     -0.823680     -1.861762
  H       5.340822     -1.880239      0.343605
  H       4.084795      3.549302      0.257372
  H      -3.297745      2.045012      2.292354
  H      -6.386986      0.276927     -0.585807
