35
Coordinates from ORCA-job Catechin E -1030.741717469695
  O           0.42592344958861      0.64671628878379     -0.20194694095575
  O          -0.70344285038863     -2.82118363501272     -0.27525563947559
  O           4.38711736200410     -1.99424013687592      0.20808200804403
  O           4.65869901488995      2.76950445765589      0.31703606713111
  O          -4.05621707708921      1.73960692308354      1.77038383355329
  O          -5.85158779233952      0.71492930994246      0.09421828541791
  C           0.10722664826180     -1.73948837455105      0.16362868858848
  C          -0.33482457158195     -0.49667794608447     -0.63260975725875
  C           1.59406034822510     -2.01292290748812     -0.08604106554286
  C           2.40310037576790     -0.74152450912469     -0.00091451836920
  C           1.78014010606456      0.50963135968189     -0.06144225917528
  C          -1.80011110149509     -0.15926260178594     -0.47283909811806
  C           3.79949684108345     -0.75756726908385      0.15745784169980
  C           2.50323562608675      1.70521572334083      0.04436903110772
  C          -2.23675198566188      0.65462203051409      0.58208151278430
  C          -2.74585032521397     -0.68691535369089     -1.35154020420005
  C           4.54683497798152      0.41427225246204      0.26382879868292
  C           3.88536302395317      1.64668676150078      0.20918449516370
  C          -3.58746128325124      0.94221655521636      0.76224550593614
  C          -4.10343074643101     -0.40893150149754     -1.17287485547994
  C          -4.53878042195952      0.40136034416516     -0.12533424100166
  H          -0.06476570453433     -1.52685690288836      1.23143555219740
  H          -0.11566778792877     -0.68738515340250     -1.69365913735596
  H           1.68927970074491     -2.47832690155169     -1.07806774970453
  H           1.97064836259719     -2.74927749221141      0.63638321771069
  H           1.97114832533139      2.65078985970809     -0.01260433363210
  H          -1.50496017453432      1.08930542795740      1.25931185805658
  H          -0.39769628795063     -3.62078774734363      0.18083303075411
  H          -2.43043065293145     -1.32775850902880     -2.16917370283795
  H           5.62638919944110      0.39292859191545      0.38566252740306
  H          -4.83807136221199     -0.82368049975787     -1.86176228448814
  H           5.34082230090559     -1.88023928115449      0.34360457738013
  H           4.08479521272589      3.54930195040158      0.25737200842560
  H          -3.29774498037877      2.04501171252881      2.29235423266097
  H          -6.38698576977069      0.27692717367579     -0.58580728520210
