
                                 *****************
                                 * O   R   C   A *
                                 *****************

                                            #,                                       
                                            ###                                      
                                            ####                                     
                                            #####                                    
                                            ######                                   
                                           ########,                                 
                                     ,,################,,,,,                         
                               ,,#################################,,                 
                          ,,##########################################,,             
                       ,#########################################, ''#####,          
                    ,#############################################,,   '####,        
                  ,##################################################,,,,####,       
                ,###########''''           ''''###############################       
              ,#####''   ,,,,##########,,,,          '''####'''          '####       
            ,##' ,,,,###########################,,,                        '##       
           ' ,,###''''                  '''############,,,                           
         ,,##''                                '''############,,,,        ,,,,,,###''
      ,#''                                            '''#######################'''  
     '                                                          ''''####''''         
             ,#######,   #######,   ,#######,      ##                                
            ,#'     '#,  ##    ##  ,#'     '#,    #''#        ,####,    ,#,          
            ##       ##  ##   ,#'  ##            #'  '#       #'       ,# #          
            ##       ##  #######   ##           ,######,      #####,      #          
            '#,     ,#'  ##    ##  '#,     ,#' ,#      #,     #,   #      #          
             '#######'   ##     ##  '#######'  #'      '#     '####' #    #          



                #########################################################
                #                        -***-                          #
                #          Department of theory and spectroscopy        #
                #                                                       #
                #                      Frank Neese                      #
                #                                                       #
                #     Directorship, Architecture, Infrastructure        #
                #                    SHARK, DRIVERS                     #
                #        Core code/Algorithms in most modules           #
                #                                                       #
                #        Max Planck Institute fuer Kohlenforschung      #
                #                Kaiser Wilhelm Platz 1                 #
                #                 D-45470 Muelheim/Ruhr                 #
                #                      Germany                          #
                #                                                       #
                #                  All rights reserved                  #
                #                        -***-                          #
                #########################################################


                         Program Version 6.1.1  -  RELEASE   -
                                (GIT: $487d211c$)
                          ($2025-11-21 10:33:24 +0100$)


 With contributions from (in alphabetic order):
[Max-Planck-Institut fuer Kohlenforschung]                               
  Daniel Aravena         : Magnetic Suceptibility                        
  Michael Atanasov       : Ab Initio Ligand Field Theory (pilot matlab implementation)
  Alexander A. Auer      : GIAO ZORA, VPT2 properties, NMR spectrum      
  Ute Becker             : All parallelization in ORCA, NUMFREQ, NUMCALC 
  Giovanni Bistoni       : ED, misc. LED, open-shell LED, HFLD           
  Dmytro Bykov           : pre 5.0 version of the SCF Hessian            
  Marcos Casanova-Páez   : Triplet and SCS-CIS(D). UHF-(DLPNO)-IP/EA/STEOM-CCSD. UHF-CVS-IP/STEOM-CCSD   
  Vijay G. Chilkuri      : MRCI spin determinant printing, contributions to CSF-ICE 
  Pauline Colinet        : FMM embedding                                 
  Dipayan Datta          : RHF DLPNO-CCSD density                        
  Achintya Kumar Dutta   : EOM-CC, STEOM-CC                              
  Nicolas Foglia         : Exact transition moments, OPA infrastructure, MCD improvements    
  Dmitry Ganyushin       : Spin-Orbit,Spin-Spin,Magnetic field MRCI      
  Miquel Garcia-Rates    : C-PCM and meta-GGA Hessian, CCSD/C-PCM, Gaussian charge scheme 
  Tiago L. C. Gouveia    : GS-ROHF, GS-ROCIS                             
  Yang Guo               : DLPNO-NEVPT2, F12-NEVPT2, CIM, IAO-localization        
  Andreas Hansen         : Spin unrestricted coupled pair/coupled cluster methods 
  Ingolf Harden          : AUTO-CI MPn and infrastructure                
  Benjamin Helmich-Paris : MC-RPA, TRAH-(SCF,CASSCF), AVAS, COSX integrals, SCF dyn. polar., MC-PDFT, srDFT 
  Lee Huntington         : MR-EOM, pCC                                   
  Robert Izsak           : Overlap fitted RIJCOSX, COSX-SCS-MP3, EOM     
  Riya Kayal             : Wick's Theorem for AUTO-CI, AUTO-CI UHF-CCSDT 
  Emily Kempfer          : AUTO-CI RHF CISDT and CCSDT, approximate NEVPT4
  Christian Kollmar      : KDIIS, OOCD, Brueckner-CCSD(T), CCSD density, CASPT2, CASPT2-K, improved NEVPT2 
  Axel Koslowski         : Symmetry handling                             
  Simone Kossmann        : meta-GGA functionals, TD-DFT gradient, OOMP2, (MP2 Hessian; deprecated post 5.0) 
  Lucas Lang             : DCDCAS, Hyperfine gauge corrections, ICE-SOC+SSC
  Marvin Lechner         : AUTO-CI (C++ implementation), FIC-MRCC        
  Spencer Leger          : CASSCF response                               
  Dagmar Lenk            : GEPOL surface, SMD, ORCA-2-JSON               
  Dimitrios Liakos       : Extrapolation schemes; Compound Job, Property file
  Dimitrios Manganas     : Further ROCIS development; embedding schemes. LFT, Crystal Embedding 
  Dimitrios Pantazis     : SARC Basis sets                               
  Anastasios Papadopoulos: AUTO-CI, single reference methods and gradients 
  Taras Petrenko         : pre 6.0 DFT Hessian and TD-DFT gradient,  ECA, NRVS 
  Petra Pikulova         : Analytic Raman intensities                    
  Peter Pinski           : DLPNO-MP2, DLPNO-MP2 Gradient                 
  Shashank Vittal Rao    : ES-AILFT, MagRelax                            
  Christoph Reimann      : Effective Core Potentials                     
  Marius Retegan         : Local ZFS, SOC                                
  Christoph Riplinger    : Optimizer, TS searches, QM/MM, DLPNO-CCSD(T), (RO)-DLPNO pert. Triples 
  Michael Roemelt        : Original ROCIS implementation, recursive CI coupling coefficients
  Masaaki Saitow         : Open-shell DLPNO-CCSD energy and density      
  Barbara Sandhoefer     : DKH picture change effects                    
  Yorick L. A. Schmerwitz: GMF and freeze-and-release deltaSCF, NEB S-IDPP initial path                    
  Kantharuban Sivalingam : CASSCF convergence/infrastructure, NEVPT2, NEVPT3, NEVPT4(SD), FIC-MRCI and CEPA variants
  Bernardo de Souza      : ESD, SOC TD-DFT                               
  Georgi L. Stoychev     : AutoAux, RI-MP2 NMR, DLPNO-MP2 response, X2C  
  Van Anh Tran           : RI-MP2 g-tensors                              
  Willem Van den Heuvel  : Paramagnetic NMR                              
  Zikuan Wang            : NOTCH, Electric field optimization            
  Frank Wennmohs         : Technical directorship and infrastructure     
  Hang Xu                : AUTO-CI-Response properties                   
                                                                         
[FACCTs GmbH]                                                            
  Markus Bursch, Nicolas Foglia, Miquel Garcia-Rates, Ingolf Harden, Hagen Neugebauer, Anastasios Papadopoulos, 
  Christoph Riplinger, Bernardo de Souza, Georgi L. Stoychev                                                    
                                                                 
  APM, various basis sets, CI-OPT, improved COSX, DLPNO-Multilevel,           
  DOCKER, DRACO, updates on ESD, Fragmentator, GOAT, IRC, LR-CPCM, L-BFGS, MBIS, meta-GGA TD-DFT gradient, ML-optimized integration grids, 
  MM, NACMEs, nearIR, NEB, NEB-TS, NL-DFT gradient (VV10), 2- and 3-layer-ONIOM, interface openCOSMO-RS, QMMM,   
  Crystal-QMMM, RESP, rigid body optimization, SF, symmetry and pop. for TD-DFT, various functionals, SOLVATOR                                   
                                                                         
[Other institutions]                                                     
  V. Asgeirsson          : NEB                                           
  Christoph Bannwarth    : sTDA-DFT, sTD-DFT, PBEh-3c, B97-3c, D3        
  Giovanni Bistoni       : ETS/NOCV, ADLD/ADEX, COVALED                  
  Martin Brehm           : Molecular dynamics                            
  Ronald Cardenas        : ETS/NOCV                                      
  Martina Colucci        : COVALED                                       
  Sebastian Ehlert       : rSCAN, r2SCAN, r2SCAN-3c, D4, dhf basis sets  
  Marvin Friede          : D4 for Fr, Ra, Ac-Lr                          
  Lars Goerigk           : TD-DFT with DH, B97 family of functionals     
  Stefan Grimme          : VdW corrections, initial TS optimization, DFT functionals, gCP, sTDA/sTD-DF 
  Waldemar Hujo          : DFT-NL                                        
  H. Jonsson             : NEB                                           
  Holger Kruse           : gCP                                           
  Marcel Mueller         : wB97X-3c, vDZP basis set                      
  Hagen Neugebauer       : wr2SCAN, Native XTB                           
  Gianluca Regni         : ADLD/ADEX                                     
  Tobias Risthaus        : pre 6.0 range-separated hybrid DFT and stability analysis
  Lukas Wittmann         : regularized MP2, r2SCAN double-hybrids, wr2SCAN        
                                                                         
We gratefully acknowledge several colleagues who have allowed us to      
interface, adapt or use parts of their codes:                            
  Ed Valeev, F. Pavosevic, A. Kumar             : LibInt (2-el integral package), F12 methods 
  Garnet Chan, S. Sharma, J. Yang, R. Olivares  : DMRG                   
  Ulf Ekstrom                                   : XCFun DFT Library      
  Mihaly Kallay                                 : mrcc  (arbitrary order and MRCC methods)
  Frank Weinhold                                : gennbo (NPA and NBO analysis)           
  Simon Mueller                                 : openCOSMO-RS                            
  Christopher J. Cramer and Donald G. Truhlar   : smd solvation model                     
  S Lehtola, MJT Oliveira, MAL Marques          : LibXC Library                           
  Liviu Ungur et al                             : ANISO software                          


 Your calculation uses the libint2 library for the computation of 2-el integrals
 For citations please refer to: http://libint.valeyev.net

 Your ORCA version has been built with support for libXC version: 7.0.0
 For citations please refer to: https://libxc.gitlab.io

 This ORCA versions uses:
   CBLAS   interface :  Fast vector & matrix operations
   LAPACKE interface :  Fast linear algebra routines
   SCALAPACK package :  Parallel linear algebra routines
   Shared memory     :  Shared parallel matrices
   BLAS/LAPACK       :  OpenBLAS 0.3.29  USE64BITINT DYNAMIC_ARCH NO_AFFINITY Zen SINGLE_THREADED
        Core in use  :  Zen
   Copyright (c) 2011-2014, The OpenBLAS Project


  ***********************************
  * Starting time: Sat Aug  1 16:21:20 2026
  * Host name:     Asus
  * Process ID:    522
  * Working dir.:  /mnt/d/Computational Projects/Project 1/Catechin
  ***********************************

Warning: RI is on but no J-basis has been assigned. Assigning Def2/J (nothing to worry about!)
================================================================================

----- Orbital basis set information -----
Your calculation utilizes the basis: 6-31G*
   H-He, Li-Ne : W. J. Hehre, R. Ditchfield and J.A. Pople, J. Chem. Phys. 56, 2257 (1972).
                 Note: He and Ne are unpublished basis sets taken from the Gaussian program.
                 Note: Li and B from J. D. Dill and J. A. Pople, J. Chem. Phys. 62, 2921 (1975).
   Na - Ar     : M. M. Francl, W. J. Pietro, W. J. Hehre, J. S. Binkley, M. S. Gordon, 
                 D. J. DeFrees and J. A. Pople, J. Chem. Phys. 77, 3654 (1982).
   Sc - Zn     : V. A. Rassolov, J. A. Pople, M. A. Ratner, and T. L. Windus, J. Chem. Phys. 109, 1223 (1998).
   K,Ca,Ga-Kr  : V.A. Rassolov, M.A. Ratner, J.A. Pople, P.C. Redfern, and L.A. Curtiss, J. Comput. Chem. 22, 976 (2001).
----- AuxJ basis set information -----
Your calculation utilizes the auxiliary basis: def2/J
   H-Rn: F. Weigend, Phys. Chem. Chem. Phys. 8, 1057 (2006).
   Fr-Lr: K. Eichkorn, F. Weigend, O. Treutler, R. Ahlrichs; Theor. Chem. Acc. 97, 119 (1997).

================================================================================
                                        WARNINGS
                       Please study these warnings very carefully!
================================================================================


WARNING: Geometry Optimization
  ===> : Switching off AutoStart
         For restart on a previous wavefunction, please use MOREAD

================================================================================
                                       INPUT FILE
================================================================================
NAME = Catechin.inp
|  1> ! B3LYP 6-31G* Opt Freq
|  2> 
|  3> * xyz 0 1
|  4> O      0.4094090324    0.6724249232   -0.2882716321
|  5> O     -0.6376846653   -2.8929241188    0.0048822739
|  6> O      4.3920488657   -1.9466996802    0.4097474596
|  7> O      4.6582724734    2.7663665807   -0.1132977739
|  8> O     -4.1648607920    1.0879722781    2.0815943295
|  9> O     -5.8390191443    0.7965142225   -0.0635512282
| 10> C      0.0932799378   -1.7041303711    0.3241345521
| 11> C     -0.3225791959   -0.5292011332   -0.5835216714
| 12> C      1.5825049114   -1.9778803883    0.1264384824
| 13> C      2.3844961045   -0.7123566203    0.0751774276
| 14> C      1.7609057361    0.5192628091   -0.1469072272
| 15> C     -1.7964804515   -0.1746983210   -0.4360865039
| 16> C      3.7781771271   -0.7411990572    0.2108014878
| 17> C      2.5082204402    1.6982318134   -0.1993037860
| 18> C     -2.3097534411    0.3099690833    0.7802349997
| 19> C     -2.6689908853   -0.3187400136   -1.5278049767
| 20> C      4.5344306939    0.4274066112    0.1483516152
| 21> C      3.8900083959    1.6405870613   -0.0558961218
| 22> C     -3.6631660015    0.6269227489    0.8963974969
| 23> C     -4.0232481519    0.0067459912   -1.4092811784
| 24> C     -4.5167713073    0.4765002082   -0.1951329852
| 25> H     -0.0936132220   -1.4560993932    1.3766407104
| 26> H     -0.1339201339   -0.7906725321   -1.6344436068
| 27> H      1.7400471475   -2.5361263606   -0.8056485050
| 28> H      1.9276296583   -2.6257927988    0.9417830798
| 29> H      1.9968131152    2.6419321341   -0.3605415440
| 30> H     -1.6427373028    0.4421811165    1.6272253393
| 31> H     -0.4018277205   -3.5663054060    0.6666437001
| 32> H     -2.2979686012   -0.6904000207   -2.4808586180
| 33> H      5.6140974993    0.4129250644    0.2550350905
| 34> H     -4.6728155371   -0.1144713445   -2.2701984267
| 35> H      5.3508581964   -1.7992647065    0.4755682761
| 36> H      4.0786492310    3.5292724473   -0.2777748853
| 37> H     -3.4483410134    1.1250638696    2.7327403872
| 38> H     -6.2865709991    0.6326833031   -0.9072760376
| 39> **                         ****END OF INPUT****
================================================================================

                       *****************************
                       * Geometry Optimization Run *
                       *****************************

Geometry optimization settings:
Update method            Update   .... BFGS
Choice of coordinates    CoordSys .... (2022) Redundant Internals
Initial Hessian          InHess   .... Almloef's Model
Max. no of cycles        MaxIter  .... 105

Convergence Tolerances:
Energy Change            TolE     ....  5.0000e-06 Eh
Max. Gradient            TolMAXG  ....  3.0000e-04 Eh/bohr
RMS Gradient             TolRMSG  ....  1.0000e-04 Eh/bohr
Max. Displacement        TolMAXD  ....  4.0000e-03 bohr
RMS Displacement         TolRMSD  ....  2.0000e-03 bohr
Strict Convergence                .... False

------------------------------------------------------------------------------
                        ORCA OPTIMIZATION COORDINATE SETUP
------------------------------------------------------------------------------

The optimization will be done in redundant internal coordinates (2022)
Making redundant internal coordinates   ...  (2022 redundants) done
Evaluating the initial hessian          ...  (Almloef) done
Evaluating the coordinates              ...  done
Calculating the B-matrix                .... done
Calculating the G-matrix                .... done
The number of degrees of freedom        ....  183

    -----------------------------------------------------------------
                    Redundant Internal Coordinates


    -----------------------------------------------------------------
         Definition                    Initial Value    Approx d2E/dq
    -----------------------------------------------------------------
      1. B(C   6,O   1)                  1.4316         0.480302   
      2. B(C   7,O   0)                  1.4377         0.469707   
      3. B(C   7,C   6)                  1.5418         0.357688   
      4. B(C   8,C   6)                  1.5270         0.377676   
      5. B(C   9,C   8)                  1.4991         0.418447   
      6. B(C  10,C   9)                  1.3982         0.606169   
      7. B(C  10,O   0)                  1.3675         0.607874   
      8. B(C  11,C   7)                  1.5231         0.383183   
      9. B(C  12,C   9)                  1.4006         0.601019   
     10. B(C  12,O   2)                  1.3674         0.608149   
     11. B(C  13,C  10)                  1.3969         0.609268   
     12. B(C  14,C  11)                  1.4063         0.588397   
     13. B(C  15,C  11)                  1.4049         0.591417   
     14. B(C  16,C  12)                  1.3934         0.617126   
     15. B(C  17,O   3)                  1.3641         0.615344   
     16. B(C  17,C  16)                  1.3888         0.627525   
     17. B(C  17,C  13)                  1.3904         0.623867   
     18. B(C  18,C  14)                  1.3949         0.613704   
     19. B(C  18,O   4)                  1.3671         0.608716   
     20. B(C  19,C  15)                  1.3979         0.607022   
     21. B(C  20,C  19)                  1.3923         0.619629   
     22. B(C  20,C  18)                  1.3938         0.616111   
     23. B(C  20,O   5)                  1.3668         0.609448   
     24. B(H  21,C   6)                  1.0974         0.350483   
     25. B(H  22,C   7)                  1.0993         0.348042   
     26. B(H  23,C   8)                  1.0978         0.349882   
     27. B(H  24,C   8)                  1.0971         0.350794   
     28. B(H  25,C  13)                  1.0854         0.366229   
     29. B(H  26,C  14)                  1.0862         0.365191   
     30. B(H  27,O   1)                  0.9731         0.495456   
     31. B(H  28,C  15)                  1.0882         0.362538   
     32. B(H  29,C  16)                  1.0850         0.366747   
     33. B(H  30,C  19)                  1.0853         0.366413   
     34. B(H  31,O   2)                  0.9723         0.496968   
     35. B(H  32,O   3)                  0.9721         0.497291   
     36. B(H  33,O   4)                  0.9689         0.503231   
     37. B(H  34,O   5)                  0.9690         0.502995   
     38. A(C   7,O   0,C  10)          115.5194         0.406319   
     39. A(C   6,O   1,H  27)          107.4101         0.351449   
     40. A(C  12,O   2,H  31)          108.5952         0.366041   
     41. A(C  17,O   3,H  32)          108.6008         0.366820   
     42. A(C  18,O   4,H  33)          108.9141         0.366886   
     43. A(C  20,O   5,H  34)          108.8689         0.366932   
     44. A(O   1,C   6,C   8)          108.6761         0.377731   
     45. A(C   8,C   6,H  21)          109.3164         0.323460   
     46. A(C   7,C   6,C   8)          108.8709         0.361338   
     47. A(O   1,C   6,C   7)          111.3335         0.374200   
     48. A(C   7,C   6,H  21)          110.2702         0.320592   
     49. A(O   1,C   6,H  21)          108.3377         0.334533   
     50. A(C   6,C   7,C  11)          112.4197         0.362232   
     51. A(C  11,C   7,H  22)          108.2995         0.323858   
     52. A(C   6,C   7,H  22)          109.5877         0.320226   
     53. A(O   0,C   7,C  11)          106.1582         0.377220   
     54. A(O   0,C   7,H  22)          107.9243         0.332910   
     55. A(O   0,C   7,C   6)          112.2531         0.372763   
     56. A(C   6,C   8,C   9)          112.0133         0.371183   
     57. A(C   9,C   8,H  24)          110.8336         0.329012   
     58. A(C   6,C   8,H  24)          108.4477         0.323507   
     59. A(C   9,C   8,H  23)          108.8723         0.328871   
     60. A(C   6,C   8,H  23)          109.9394         0.323369   
     61. A(H  23,C   8,H  24)          106.5903         0.288344   
     62. A(C   8,C   9,C  10)          120.6920         0.403078   
     63. A(C  10,C   9,C  12)          118.5100         0.429901   
     64. A(C   8,C   9,C  12)          120.7738         0.402472   
     65. A(C   9,C  10,C  13)          120.7171         0.430954   
     66. A(O   0,C  10,C  13)          115.4890         0.428356   
     67. A(O   0,C  10,C   9)          123.7691         0.427965   
     68. A(C  14,C  11,C  15)          118.7336         0.426381   
     69. A(C   7,C  11,C  15)          120.1252         0.395169   
     70. A(C   7,C  11,C  14)          121.1392         0.394815   
     71. A(O   2,C  12,C   9)          118.6194         0.427345   
     72. A(C   9,C  12,C  16)          121.2301         0.431286   
     73. A(O   2,C  12,C  16)          120.1504         0.429377   
     74. A(C  17,C  13,H  25)          121.3064         0.354292   
     75. A(C  10,C  13,H  25)          119.1650         0.352874   
     76. A(C  10,C  13,C  17)          119.5263         0.433189   
     77. A(C  11,C  14,C  18)          120.2953         0.429217   
     78. A(C  11,C  14,H  26)          119.4886         0.350632   
     79. A(C  18,C  14,H  26)          120.2147         0.353138   
     80. A(C  11,C  15,C  19)          120.7904         0.428769   
     81. A(C  19,C  15,H  28)          118.9547         0.352050   
     82. A(C  11,C  15,H  28)          120.2546         0.350504   
     83. A(C  17,C  16,H  29)          119.1986         0.354728   
     84. A(C  12,C  16,H  29)          121.6329         0.353725   
     85. A(C  12,C  16,C  17)          119.1685         0.434646   
     86. A(C  13,C  17,C  16)          120.8317         0.435497   
     87. A(O   3,C  17,C  16)          117.7596         0.431577   
     88. A(O   3,C  17,C  13)          121.4085         0.431124   
     89. A(C  14,C  18,C  20)          120.2969         0.432780   
     90. A(O   4,C  18,C  20)          119.3785         0.429322   
     91. A(O   4,C  18,C  14)          120.3246         0.429021   
     92. A(C  20,C  19,H  30)          121.1521         0.353913   
     93. A(C  15,C  19,H  30)          119.1170         0.352683   
     94. A(C  15,C  19,C  20)          119.7308         0.432371   
     95. A(O   5,C  20,C  18)          119.4599         0.429414   
     96. A(C  18,C  20,C  19)          120.1499         0.433528   
     97. A(O   5,C  20,C  19)          120.3901         0.429853   
     98. D(C   8,C   6,O   1,H  27)     65.9638         0.018199   
     99. D(H  21,C   6,O   1,H  27)    -52.7142         0.018199   
    100. D(C   7,C   6,O   1,H  27)   -174.1324         0.018199   
    101. D(O   0,C   7,C   6,O   1)   -179.4312         0.010274   
    102. D(C  11,C   7,O   0,C  10)    169.6073         0.017390   
    103. D(H  22,C   7,O   0,C  10)    -74.4615         0.017390   
    104. D(C  11,C   7,C   6,O   1)     60.9594         0.010274   
    105. D(O   0,C   7,C   6,C   8)    -59.6428         0.010274   
    106. D(C  11,C   7,C   6,H  21)    -59.3256         0.010274   
    107. D(C  11,C   7,C   6,C   8)   -179.2522         0.010274   
    108. D(C   6,C   7,O   0,C  10)     46.4061         0.017390   
    109. D(O   0,C   7,C   6,H  21)     60.2838         0.010274   
    110. D(C   9,C   8,C   6,H  21)    -77.3982         0.011376   
    111. D(C   9,C   8,C   6,O   1)    164.5417         0.011376   
    112. D(C   9,C   8,C   6,C   7)     43.1176         0.011376   
    113. D(H  23,C   8,C   6,O   1)     43.3562         0.011376   
    114. D(H  23,C   8,C   6,C   7)    -78.0679         0.011376   
    115. D(H  23,C   8,C   6,H  21)    161.4162         0.011376   
    116. D(C  12,C   9,C   8,C   6)    165.1162         0.012950   
    117. D(C  10,C   9,C   8,H  23)    105.0984         0.012950   
    118. D(C  10,C   9,C   8,H  24)   -137.9694         0.012950   
    119. D(C  12,C   9,C   8,H  23)    -73.0846         0.012950   
    120. D(C  10,C   9,C   8,C   6)    -16.7008         0.012950   
    121. D(C  13,C  10,C   9,C  12)     -1.5573         0.025359   
    122. D(C  13,C  10,C   9,C   8)   -179.7807         0.025359   
    123. D(O   0,C  10,C   9,C  12)   -179.6650         0.025359   
    124. D(O   0,C  10,C   9,C   8)      2.1116         0.025359   
    125. D(C  13,C  10,O   0,C   7)    164.4381         0.027035   
    126. D(C   9,C  10,O   0,C   7)    -17.3641         0.027035   
    127. D(C  14,C  11,C   7,C   6)     64.1237         0.010945   
    128. D(C  14,C  11,C   7,O   0)    -58.9726         0.010945   
    129. D(C  15,C  11,C   7,C   6)   -116.3913         0.010945   
    130. D(C  15,C  11,C   7,O   0)    120.5124         0.010945   
    131. D(C  14,C  11,C   7,H  22)   -174.6499         0.010945   
    132. D(C  16,C  12,C   9,C  10)      0.9870         0.024907   
    133. D(C  16,C  12,C   9,C   8)    179.2089         0.024907   
    134. D(O   2,C  12,C   9,C  10)   -179.1161         0.024907   
    135. D(O   2,C  12,C   9,C   8)     -0.8942         0.024907   
    136. D(C  16,C  12,O   2,H  31)     -0.5914         0.027061   
    137. D(C   9,C  12,O   2,H  31)    179.5105         0.027061   
    138. D(H  25,C  13,C  10,C   9)   -179.2291         0.025634   
    139. D(C  17,C  13,C  10,O   0)    179.5732         0.025634   
    140. D(C  17,C  13,C  10,C   9)      1.3158         0.025634   
    141. D(H  25,C  13,C  10,O   0)     -0.9717         0.025634   
    142. D(H  26,C  14,C  11,C  15)   -178.9621         0.023819   
    143. D(H  26,C  14,C  11,C   7)      0.5299         0.023819   
    144. D(C  18,C  14,C  11,C  15)      0.6243         0.023819   
    145. D(C  18,C  14,C  11,C   7)   -179.8837         0.023819   
    146. D(H  28,C  15,C  11,C  14)    179.9256         0.024076   
    147. D(H  28,C  15,C  11,C   7)      0.4284         0.024076   
    148. D(C  19,C  15,C  11,C  14)     -0.2857         0.024076   
    149. D(C  19,C  15,C  11,C   7)   -179.7829         0.024076   
    150. D(H  29,C  16,C  12,C   9)    179.8454         0.026339   
    151. D(H  29,C  16,C  12,O   2)     -0.0500         0.026339   
    152. D(C  17,C  16,C  12,C   9)     -0.1730         0.026339   
    153. D(C  17,C  16,C  12,O   2)    179.9316         0.026339   
    154. D(C  16,C  17,C  13,H  25)   -179.9171         0.026953   
    155. D(C  16,C  17,C  13,C  10)     -0.4741         0.026953   
    156. D(O   3,C  17,C  13,H  25)     -0.0662         0.026953   
    157. D(O   3,C  17,C  13,C  10)    179.3768         0.026953   
    158. D(C  16,C  17,O   3,H  32)    178.8212         0.027750   
    159. D(O   3,C  17,C  16,C  12)   -179.9477         0.027290   
    160. D(C  13,C  17,O   3,H  32)     -1.0341         0.027750   
    161. D(C  13,C  17,C  16,H  29)    179.8905         0.027290   
    162. D(C  13,C  17,C  16,C  12)     -0.0915         0.027290   
    163. D(O   3,C  17,C  16,H  29)      0.0344         0.027290   
    164. D(C  20,C  18,C  14,H  26)    179.0565         0.026030   
    165. D(C  20,C  18,C  14,C  11)     -0.5269         0.026030   
    166. D(O   4,C  18,C  14,H  26)     -0.9414         0.026030   
    167. D(O   4,C  18,C  14,C  11)    179.4752         0.026030   
    168. D(C  20,C  18,O   4,H  33)    179.4459         0.027115   
    169. D(C  14,C  18,O   4,H  33)     -0.5561         0.027115   
    170. D(H  30,C  19,C  15,H  28)     -0.2427         0.025434   
    171. D(H  30,C  19,C  15,C  11)    179.9659         0.025434   
    172. D(C  20,C  19,C  15,H  28)    179.6370         0.025434   
    173. D(C  20,C  19,C  15,C  11)     -0.1544         0.025434   
    174. D(C  18,C  20,C  19,H  30)   -179.8616         0.026566   
    175. D(C  18,C  20,C  19,C  15)      0.2612         0.026566   
    176. D(O   5,C  20,C  19,H  30)     -0.0072         0.026566   
    177. D(O   5,C  20,C  19,C  15)   -179.8844         0.026566   
    178. D(C  19,C  20,C  18,C  14)      0.0780         0.026247   
    179. D(C  19,C  20,C  18,O   4)   -179.9240         0.026247   
    180. D(O   5,C  20,C  18,C  14)   -179.7777         0.026247   
    181. D(O   5,C  20,C  18,O   4)      0.2202         0.026247   
    182. D(C  19,C  20,O   5,H  34)      0.2967         0.027185   
    183. D(C  18,C  20,O   5,H  34)   -179.8479         0.027185   
    -----------------------------------------------------------------

Number of atoms                         .... 35
Number of degrees of freedom            .... 183


         *************************************************************
         *                GEOMETRY OPTIMIZATION CYCLE   1            *
         *************************************************************
---------------------------------
CARTESIAN COORDINATES (ANGSTROEM)
---------------------------------
  O      0.409409    0.672425   -0.288272
  O     -0.637685   -2.892924    0.004882
  O      4.392049   -1.946700    0.409747
  O      4.658272    2.766367   -0.113298
  O     -4.164861    1.087972    2.081594
  O     -5.839019    0.796514   -0.063551
  C      0.093280   -1.704130    0.324135
  C     -0.322579   -0.529201   -0.583522
  C      1.582505   -1.977880    0.126438
  C      2.384496   -0.712357    0.075177
  C      1.760906    0.519263   -0.146907
  C     -1.796480   -0.174698   -0.436087
  C      3.778177   -0.741199    0.210801
  C      2.508220    1.698232   -0.199304
  C     -2.309753    0.309969    0.780235
  C     -2.668991   -0.318740   -1.527805
  C      4.534431    0.427407    0.148352
  C      3.890008    1.640587   -0.055896
  C     -3.663166    0.626923    0.896397
  C     -4.023248    0.006746   -1.409281
  C     -4.516771    0.476500   -0.195133
  H     -0.093613   -1.456099    1.376641
  H     -0.133920   -0.790673   -1.634444
  H      1.740047   -2.536126   -0.805649
  H      1.927630   -2.625793    0.941783
  H      1.996813    2.641932   -0.360542
  H     -1.642737    0.442181    1.627225
  H     -0.401828   -3.566305    0.666644
  H     -2.297969   -0.690400   -2.480859
  H      5.614097    0.412925    0.255035
  H     -4.672816   -0.114471   -2.270198
  H      5.350858   -1.799265    0.475568
  H      4.078649    3.529272   -0.277775
  H     -3.448341    1.125064    2.732740
  H     -6.286571    0.632683   -0.907276

----------------------------
CARTESIAN COORDINATES (A.U.)
----------------------------
  NO LB      ZA    FRAG     MASS         X           Y           Z
   0 O     8.0000    0    15.999    0.773671    1.270699   -0.544754
   1 O     8.0000    0    15.999   -1.205049   -5.466834    0.009226
   2 O     8.0000    0    15.999    8.299770   -3.678729    0.774310
   3 O     8.0000    0    15.999    8.802859    5.227675   -0.214102
   4 O     8.0000    0    15.999   -7.870446    2.055970    3.933643
   5 O     8.0000    0    15.999  -11.034147    1.505194   -0.120094
   6 C     6.0000    0    12.011    0.176274   -3.220340    0.612526
   7 C     6.0000    0    12.011   -0.609586   -1.000045   -1.102696
   8 C     6.0000    0    12.011    2.990501   -3.737652    0.238934
   9 C     6.0000    0    12.011    4.506045   -1.346159    0.142065
  10 C     6.0000    0    12.011    3.327630    0.981265   -0.277614
  11 C     6.0000    0    12.011   -3.394856   -0.330132   -0.824084
  12 C     6.0000    0    12.011    7.139720   -1.400663    0.398357
  13 C     6.0000    0    12.011    4.739850    3.209193   -0.376630
  14 C     6.0000    0    12.011   -4.364801    0.585757    1.474430
  15 C     6.0000    0    12.011   -5.043662   -0.602331   -2.887133
  16 C     6.0000    0    12.011    8.568832    0.807681    0.280344
  17 C     6.0000    0    12.011    7.351051    3.100260   -0.105628
  18 C     6.0000    0    12.011   -6.922381    1.184712    1.693946
  19 C     6.0000    0    12.011   -7.602837    0.012748   -2.663155
  20 C     6.0000    0    12.011   -8.535461    0.900455   -0.368748
  21 H     1.0000    0     1.008   -0.176903   -2.751629    2.601474
  22 H     1.0000    0     1.008   -0.253072   -1.494155   -3.088651
  23 H     1.0000    0     1.008    3.288213   -4.792584   -1.522455
  24 H     1.0000    0     1.008    3.642692   -4.962029    1.779712
  25 H     1.0000    0     1.008    3.773430    4.992528   -0.681325
  26 H     1.0000    0     1.008   -3.104324    0.835601    3.075010
  27 H     1.0000    0     1.008   -0.759344   -6.739341    1.259774
  28 H     1.0000    0     1.008   -4.342531   -1.304667   -4.688143
  29 H     1.0000    0     1.008   10.609107    0.780315    0.481946
  30 H     1.0000    0     1.008   -8.830342   -0.216319   -4.290053
  31 H     1.0000    0     1.008   10.111657   -3.400118    0.898694
  32 H     1.0000    0     1.008    7.707530    6.669358   -0.524918
  33 H     1.0000    0     1.008   -6.516420    2.126063    5.164131
  34 H     1.0000    0     1.008  -11.879898    1.195598   -1.714503

--------------------------------
INTERNAL COORDINATES (ANGSTROEM)
--------------------------------
 O      0   0   0     0.000000000000     0.00000000     0.00000000
 O      1   0   0     3.727473435942     0.00000000     0.00000000
 O      1   2   0     4.817516412250    72.59131064     0.00000000
 O      1   2   3     4.740047263091   132.17841631     0.35430319
 O      1   2   3     5.168451287042    78.00796776   214.29546813
 O      5   1   2     2.736677447283    99.98800366   280.52873866
 C      2   1   3     1.431594161308    23.04836704    41.85251069
 C      1   2   3     1.437666349156    22.12889086   139.52294632
 C      7   2   1     1.527027776396   108.67611050   240.61484894
 C      9   7   2     1.499122402248   112.01328928   164.54172272
 C      1   2   3     1.367474266040    99.34436669     0.54899915
 C      8   1   2     1.523087090003   106.15815097   123.74134805
 C      3   1   2     1.367351367864    29.36166943   179.87233736
 C     11   1   2     1.396850951046   115.48899606   180.34002563
 C     12   8   1     1.406339096649   121.13923681   301.02743700
 C     12   8   1     1.404945440275   120.12517879   120.51238342
 C     13   3   1     1.393362354918   120.15041836   180.24353381
 C      4   1   2     1.364149613767    29.79225022   359.44424275
 C      5   1   2     1.367097605585    41.45986302   298.29772776
 C     16  12   8     1.397856135024   120.79043929   180.21708418
 C      6   5   1     1.366770672269    60.56591896    13.52333604
 H      7   2   1     1.097368503483   108.33774663   121.93684731
 H      8   1   2     1.099270871270   107.92429584   239.67253559
 H      9   7   2     1.097836178045   109.93941922    43.35617442
 H      9   7   2     1.097127337692   108.44770134   287.17564762
 H     14  11   1     1.085405620935   119.16498974   359.02827054
 H     15  12   8     1.086178247734   119.48861765     0.52987744
 H      2   1   3     0.973138757613   130.33606261    48.55379749
 H     16  12   8     1.088163562784   120.25455876     0.42837994
 H     17  13   3     1.085021423651   121.63292023   359.95003012
 H     20  16  12     1.085269523579   119.11695435   179.96589543
 H      3   1   2     0.972308996149   137.95268229   178.69066565
 H      4   1   2     0.972132287602    78.81247161   178.51512709
 H      5   1   2     0.968900184613    69.92359349    97.51632972
 H      6   5   1     0.969027753412   169.43207388    14.87621998

---------------------------
INTERNAL COORDINATES (A.U.)
---------------------------
 O      0   0   0     0.000000000000     0.00000000     0.00000000
 O      1   0   0     7.043903965398     0.00000000     0.00000000
 O      1   2   0     9.103786664824    72.59131064     0.00000000
 O      1   2   3     8.957391189084   132.17841631     0.35430319
 O      1   2   3     9.766957469023    78.00796776   214.29546813
 O      5   1   2     5.171570892244    99.98800366   280.52873866
 C      2   1   3     2.705320899793    23.04836704    41.85251069
 C      1   2   3     2.716795671859    22.12889086   139.52294632
 C      7   2   1     2.885664296280   108.67611050   240.61484894
 C      9   7   2     2.832930781475   112.01328928   164.54172272
 C      1   2   3     2.584151858000    99.34436669     0.54899915
 C      8   1   2     2.878217478216   106.15815097   123.74134805
 C      3   1   2     2.583919614106    29.36166943   179.87233736
 C     11   1   2     2.639665747384   115.48899606   180.34002563
 C     12   8   1     2.657595744093   121.13923681   301.02743700
 C     12   8   1     2.654962115221   120.12517879   120.51238342
 C     13   3   1     2.633073256110   120.15041836   180.24353381
 C      4   1   2     2.577869175714    29.79225022   359.44424275
 C      5   1   2     2.583440072895    41.45986302   298.29772776
 C     16  12   8     2.641565269816   120.79043929   180.21708418
 C      6   5   1     2.582822258464    60.56591896    13.52333604
 H      7   2   1     2.073725939575   108.33774663   121.93684731
 H      8   1   2     2.077320893697   107.92429584   239.67253559
 H      9   7   2     2.074609716416   109.93941922    43.35617442
 H      9   7   2     2.073270202277   108.44770134   287.17564762
 H     14  11   1     2.051119367786   119.16498974   359.02827054
 H     15  12   8     2.052579420840   119.48861765     0.52987744
 H      2   1   3     1.838965742192   130.33606261    48.55379749
 H     16  12   8     2.056331122574   120.25455876     0.42837994
 H     17  13   3     2.050393340138   121.63292023   359.95003012
 H     20  16  12     2.050862181056   119.11695435   179.96589543
 H      3   1   2     1.837397720269   137.95268229   178.69066565
 H      4   1   2     1.837063789509    78.81247161   178.51512709
 H      5   1   2     1.830956000024    69.92359349    97.51632972
 H      6   5   1     1.831197070118   169.43207388    14.87621998

---------------------
BASIS SET INFORMATION
---------------------
There are 3 groups of distinct atoms

 Group   1 Type O   : 10s4p1d contracted to 3s2p1d pattern {631/31/1}
 Group   2 Type C   : 10s4p1d contracted to 3s2p1d pattern {631/31/1}
 Group   3 Type H   : 4s contracted to 2s pattern {31}

Atom   0O    basis set group =>   1
Atom   1O    basis set group =>   1
Atom   2O    basis set group =>   1
Atom   3O    basis set group =>   1
Atom   4O    basis set group =>   1
Atom   5O    basis set group =>   1
Atom   6C    basis set group =>   2
Atom   7C    basis set group =>   2
Atom   8C    basis set group =>   2
Atom   9C    basis set group =>   2
Atom  10C    basis set group =>   2
Atom  11C    basis set group =>   2
Atom  12C    basis set group =>   2
Atom  13C    basis set group =>   2
Atom  14C    basis set group =>   2
Atom  15C    basis set group =>   2
Atom  16C    basis set group =>   2
Atom  17C    basis set group =>   2
Atom  18C    basis set group =>   2
Atom  19C    basis set group =>   2
Atom  20C    basis set group =>   2
Atom  21H    basis set group =>   3
Atom  22H    basis set group =>   3
Atom  23H    basis set group =>   3
Atom  24H    basis set group =>   3
Atom  25H    basis set group =>   3
Atom  26H    basis set group =>   3
Atom  27H    basis set group =>   3
Atom  28H    basis set group =>   3
Atom  29H    basis set group =>   3
Atom  30H    basis set group =>   3
Atom  31H    basis set group =>   3
Atom  32H    basis set group =>   3
Atom  33H    basis set group =>   3
Atom  34H    basis set group =>   3
---------------------------------
AUXILIARY/J BASIS SET INFORMATION
---------------------------------
There are 3 groups of distinct atoms

 Group   1 Type O   : 12s5p4d2f1g contracted to 6s4p3d1f1g pattern {711111/2111/211/2/1}
 Group   2 Type C   : 12s5p4d2f1g contracted to 6s4p3d1f1g pattern {711111/2111/211/2/1}
 Group   3 Type H   : 5s2p1d contracted to 3s1p1d pattern {311/2/1}

Atom   0O    basis set group =>   1
Atom   1O    basis set group =>   1
Atom   2O    basis set group =>   1
Atom   3O    basis set group =>   1
Atom   4O    basis set group =>   1
Atom   5O    basis set group =>   1
Atom   6C    basis set group =>   2
Atom   7C    basis set group =>   2
Atom   8C    basis set group =>   2
Atom   9C    basis set group =>   2
Atom  10C    basis set group =>   2
Atom  11C    basis set group =>   2
Atom  12C    basis set group =>   2
Atom  13C    basis set group =>   2
Atom  14C    basis set group =>   2
Atom  15C    basis set group =>   2
Atom  16C    basis set group =>   2
Atom  17C    basis set group =>   2
Atom  18C    basis set group =>   2
Atom  19C    basis set group =>   2
Atom  20C    basis set group =>   2
Atom  21H    basis set group =>   3
Atom  22H    basis set group =>   3
Atom  23H    basis set group =>   3
Atom  24H    basis set group =>   3
Atom  25H    basis set group =>   3
Atom  26H    basis set group =>   3
Atom  27H    basis set group =>   3
Atom  28H    basis set group =>   3
Atom  29H    basis set group =>   3
Atom  30H    basis set group =>   3
Atom  31H    basis set group =>   3
Atom  32H    basis set group =>   3
Atom  33H    basis set group =>   3
Atom  34H    basis set group =>   3
------------------------------------------------------------------------------
                             ORCA STARTUP CALCULATIONS
                           -- RI-GTO INTEGRALS CHOSEN --
------------------------------------------------------------------------------
------------------------------------------------------------------------------
                   ___                                                        
                  /   \      - P O W E R E D   B Y -                         
                 /     \                                                     
                 |  |  |   _    _      __       _____    __    __             
                 |  |  |  | |  | |    /  \     |  _  \  |  |  /  |          
                  \  \/   | |  | |   /    \    | | | |  |  | /  /          
                 / \  \   | |__| |  /  /\  \   | |_| |  |  |/  /          
                |  |  |   |  __  | /  /__\  \  |    /   |      \           
                |  |  |   | |  | | |   __   |  |    \   |  |\   \          
                \     /   | |  | | |  |  |  |  | |\  \  |  | \   \       
                 \___/    |_|  |_| |__|  |__|  |_| \__\ |__|  \__/        
                                                                              
                      - O R C A' S   B I G   F R I E N D -                    
                                      &                                       
                       - I N T E G R A L  F E E D E R -                       
                                                                              
 v1 FN, 2020, v2 2021, v3 2022-2024                                           
------------------------------------------------------------------------------


----------------------
SHARK INTEGRAL PACKAGE
----------------------

Number of atoms                             ...     35
Number of basis functions                   ...    322
Number of shells                            ...    154
Maximum angular momentum                    ...      2
Integral batch strategy                     ... SHARK/LIBINT Hybrid
RI-J (if used) integral strategy            ... SPLIT-RIJ (Revised 2003 algorithm where possible)
Printlevel                                  ...      1
Contraction scheme used                     ... SEGMENTED contraction
Prescreening option                         ... SCHWARTZ
   Thresh                                   ... 2.500e-11
   Tcut                                     ... 2.500e-12
   Tpresel                                  ... 2.500e-12 
Coulomb Range Separation                    ... NOT USED
Exchange Range Separation                   ... NOT USED
Multipole approximations                    ... NOT USED
Finite Nucleus Model                        ... NOT USED
CABS basis                                  ... NOT available
Auxiliary Coulomb fitting basis             ... AVAILABLE
   # of basis functions in Aux-J            ...   1183
   # of shells in Aux-J                     ...    385
   Maximum angular momentum in Aux-J        ...      4
Auxiliary J/K fitting basis                 ... NOT available
Auxiliary Correlation fitting basis         ... NOT available
Auxiliary 'external' fitting basis          ... NOT available

Checking pre-screening integrals            ... done (  0.0 sec) Dimension = 154
   => SHARK Basis and OBASIS are compatible. Storing Pre-screening
Shell pair information
Shell pair cut-off parameter TPreSel        ...   2.5e-12
Total number of shell pairs                 ...     11935
Shell pairs after pre-screening             ...      8453
Total number of primitive shell pairs       ...     69489
Primitive shell pairs kept                  ...     27563
          la=0 lb=0:   2825 shell pairs
          la=1 lb=0:   2890 shell pairs
          la=1 lb=1:    746 shell pairs
          la=2 lb=0:   1200 shell pairs
          la=2 lb=1:    650 shell pairs
          la=2 lb=2:    142 shell pairs

Checking whether 4 symmetric matrices of dimension 322 fit in memory
:Max Core in MB      =   4096.00
 MB in use           =     15.14
 MB left             =   4080.86
 MB needed           =      1.59
 Data fit in memory  = YES
Calculating RI/J V-Matrix + Cholesky decomp.... done (  0.4 sec)
Calculating Nuclear repulsion               ... done (  0.0 sec) ENN=   1637.931342055677 Eh

Diagonalization of the overlap matrix:
Smallest eigenvalue                        ... 3.870e-04
Time for diagonalization                   ...    0.014 sec
Threshold for overlap eigenvalues          ... 1.000e-07
Number of eigenvalues below threshold      ... 0
Time for construction of square roots      ...    0.024 sec
Total time needed                          ...    0.060 sec

-------------------
DFT GRID GENERATION
-------------------

General Integration Accuracy     IntAcc      ... 4.388
Radial Grid Type                 RadialGrid  ... OptM3 with GC (2021)
Angular Grid (max. ang.)         AngularGrid ... 4 (Lebedev-302)
Angular grid pruning method      GridPruning ... 4 (adaptive)
Weight generation scheme         WeightScheme... mBecke (2022)
Basis function cutoff            BFCut       ... 1.0000e-11
Integration weight cutoff        WCut        ... 1.0000e-14
Partially contracted basis set               ... off
Rotationally invariant grid construction     ... off
Angular grids for H and He will be reduced by one unit

Total number of grid points                  ...   170359
Total number of batches                      ...     2679
Average number of points per batch           ...       63
Average number of grid points per atom       ...     4867

--------------------
COSX GRID GENERATION
--------------------

GRIDX 1
-------
General Integration Accuracy     IntAcc      ... 3.816
Radial Grid Type                 RadialGrid  ... OptM3 with GC (2021)
Angular Grid (max. ang.)         AngularGrid ... 1 (Lebedev-50)
Angular grid pruning method      GridPruning ... 4 (adaptive)
Weight generation scheme         WeightScheme... mBecke (2022)
Basis function cutoff            BFCut       ... 1.0000e-11
Integration weight cutoff        WCut        ... 1.0000e-14
Partially contracted basis set               ... on
Rotationally invariant grid construction     ... off
Angular grids for H and He will be reduced by one unit

Total number of grid points                  ...    21658
Total number of batches                      ...      189
Average number of points per batch           ...      114
Average number of grid points per atom       ...      619
UseSFitting                                  ... on

GRIDX 2
-------
General Integration Accuracy     IntAcc      ... 4.020
Radial Grid Type                 RadialGrid  ... OptM3 with GC (2021)
Angular Grid (max. ang.)         AngularGrid ... 2 (Lebedev-110)
Angular grid pruning method      GridPruning ... 4 (adaptive)
Weight generation scheme         WeightScheme... mBecke (2022)
Basis function cutoff            BFCut       ... 1.0000e-11
Integration weight cutoff        WCut        ... 1.0000e-14
Partially contracted basis set               ... on
Rotationally invariant grid construction     ... off
Angular grids for H and He will be reduced by one unit

Total number of grid points                  ...    47467
Total number of batches                      ...      390
Average number of points per batch           ...      121
Average number of grid points per atom       ...     1356
UseSFitting                                  ... on

GRIDX 3
-------
General Integration Accuracy     IntAcc      ... 4.338
Radial Grid Type                 RadialGrid  ... OptM3 with GC (2021)
Angular Grid (max. ang.)         AngularGrid ... 3 (Lebedev-194)
Angular grid pruning method      GridPruning ... 4 (adaptive)
Weight generation scheme         WeightScheme... mBecke (2022)
Basis function cutoff            BFCut       ... 1.0000e-11
Integration weight cutoff        WCut        ... 1.0000e-14
Partially contracted basis set               ... on
Rotationally invariant grid construction     ... off
Angular grids for H and He will be reduced by one unit

Total number of grid points                  ...   104044
Total number of batches                      ...      833
Average number of points per batch           ...      124
Average number of grid points per atom       ...     2973
UseSFitting                                  ... on
Grids setup in   6.5 sec
Initializing property integral containers    ... done (  0.0 sec)

SHARK setup successfully completed in   7.5 seconds

Maximum memory used throughout the entire STARTUP-calculation: 72.2 MB
-------------------------------------------------------------------------------
                                 ORCA GUESS
                   Start orbitals & Density for SCF / CASSCF
-------------------------------------------------------------------------------

------------
SCF SETTINGS
------------
Hamiltonian:
 Density Functional     Method          .... DFT(GTOs)
 Exchange Functional    Exchange        .... B88
   X-Alpha parameter    XAlpha          ....  0.666667
   Becke's b parameter  XBeta           ....  0.004200
 Correlation Functional Correlation     .... LYP
 LDA part of GGA corr.  LDAOpt          .... VWN-5
 Gradients option       PostSCFGGA      .... off
 Hybrid DFT is turned on
   Fraction HF Exchange ScalHFX         ....  0.200000
   Scaling of DF-GGA-X  ScalDFX         ....  0.720000
   Scaling of DF-GGA-C  ScalDFC         ....  0.810000
   Scaling of DF-LDA-C  ScalLDAC        ....  1.000000
   Perturbative correction              ....  0.000000
   NL short-range parameter             ....  4.800000
 RI-approximation to the Coulomb term is turned on
   Number of AuxJ basis functions       .... 1183
   RIJ-COSX (HFX calculated with COS-X)).... on


General Settings:
 Integral files         IntName         .... Catechin
 Hartree-Fock type      HFTyp           .... RHF
 Total Charge           Charge          ....    0
 Multiplicity           Mult            ....    1
 Number of Electrons    NEL             ....  152
 Basis Dimension        Dim             ....  322
 Nuclear Repulsion      ENuc            ....   1637.9313420557 Eh

Convergence Acceleration:
 AO-DIIS                CNVDIIS         .... on
   Start iteration      DIISMaxIt       ....    12
   Startup error        DIISStart       ....  0.200000
   # of expansion vecs  DIISMaxEq       ....     5
   Bias factor          DIISBfac        ....   1.050
   Max. coefficient     DIISMaxC        ....  10.000
 MO-DIIS                CNVKDIIS        .... off
 Trust-Rad. Augm. Hess. CNVTRAH         .... auto
   Auto Start mean grad. ratio tolernc. ....  1.125000
   Auto Start start iteration           ....    50
   Auto Start num. interpolation iter.  ....    10
   Max. Number of Micro iterations      ....    24
   Max. Number of Macro iterations      .... Maxiter - #DIIS iter
   Number of Davidson start vectors     ....     2
   Converg. threshold    (grad. norm)   ....   1.000e-05
   Grad. Scal. Fac. for Micro threshold ....   0.100
   Minimum threshold for Micro iter.    ....   1.000e-02
   NR start threshold (gradient norm)   ....   1.000e-04
   Initial trust radius                 ....   0.400
   Minimum AH scaling param. (alpha)    ....   1.000
   Maximum AH scaling param. (alpha)    .... 1000.000
   Quad. conv. algorithm                .... NR
   White noise on init. David. guess    .... on
   Maximum white noise                  ....   0.010
   Pseudo random numbers                .... off
   Inactive MOs                         .... canonical
   Orbital update algorithm             .... Taylor
   Preconditioner                       .... Diag
   Full preconditioner red. dimension   ....   250
 SOSCF                 CNVSOSCF           .... on
   Start iteration     SOSCFMaxIt         ....   150
   Startup grad/error  SOSCFStart         ....  0.003300
   Hessian update      SOSCFHessUp        .... L-BFGS
   Autom. constraints  SOSCFAutoConstrain .... off
 Level Shifting         CNVShift        .... on
   Level shift para.    LevelShift      ....    0.2500
   Turn off err/grad.   ShiftErr        ....    0.0010
 Zerner damping         CNVZerner       .... off
 Static damping         CNVDamp         .... on
   Fraction old density DampFac         ....    0.7000
   Max. Damping (<1)    DampMax         ....    0.9800
   Min. Damping (>=0)   DampMin         ....    0.0000
   Turn off err/grad.   DampErr         ....    0.1000

SCF Procedure:
 Maximum # iterations   MaxIter         ....   125
 SCF integral mode      SCFMode         .... Direct
   Integral package                     .... SHARK and LIBINT hybrid scheme
 Reset frequency        DirectResetFreq ....    20
 Integral Threshold     Thresh          ....  2.500e-11 Eh
 Primitive CutOff       TCut            ....  2.500e-12 Eh

Convergence Tolerance:
 Convergence Check Mode ConvCheckMode   .... Total+1el-Energy
 Convergence forced     ConvForced      .... 0
 Energy Change          TolE            ....  1.000e-08 Eh
 1-El. energy change                    ....  1.000e-05 Eh
 Orbital Gradient       TolG            ....  1.000e-05
 Orbital Rotation angle TolX            ....  1.000e-05
 DIIS Error             TolErr          ....  5.000e-07

------------------------------
INITIAL GUESS: MODEL POTENTIAL
------------------------------
Loading Hartree-Fock densities                     ... done
Calculating cut-offs                               ... done
Initializing the effective Hamiltonian             ... done
Setting up the integral package (SHARK)            ... done
Starting the Coulomb interaction                   ... done (   0.7 sec)
Making the grid                                    ... done (   1.1 sec)
Mapping shells                                     ... done
Starting the XC term evaluation                    ... done (   0.4 sec)
  promolecular density results
     # of electrons  =    152.002397657
     EX              =   -130.597102392
     EC              =     -5.281454225
     EX+EC           =   -135.878556617
Transforming the Hamiltonian                       ... done (   0.0 sec)
Diagonalizing the Hamiltonian                      ... done (   0.0 sec)
Back transforming the eigenvectors                 ... done (   0.0 sec)
Now organizing SCF variables                       ... done
                      ------------------
                      INITIAL GUESS DONE (   2.4 sec)
                      ------------------
             **** ENERGY FILE WAS UPDATED (Catechin.en.tmp) ****
Finished Guess after   3.0 sec
Maximum memory used throughout the entire GUESS-calculation: 25.1 MB

-------------------------------------------------------------------------------------------
                                      ORCA LEAN-SCF
                              memory conserving SCF solver
-------------------------------------------------------------------------------------------

----------------------------------------D-I-I-S--------------------------------------------
Iteration    Energy (Eh)           Delta-E    RMSDP     MaxDP     DIISErr   Damp  Time(sec)
-------------------------------------------------------------------------------------------
               ***  Starting incremental Fock matrix formation  ***
    1    -1030.2232278374021917     0.00e+00  2.48e-03  7.63e-02  2.43e-01  0.700  20.2
    2    -1030.4559495260600670    -2.33e-01  1.72e-03  4.36e-02  1.07e-01  0.700  10.6
                               ***Turning on AO-DIIS***
    3    -1030.5528188681059873    -9.69e-02  6.90e-04  1.94e-02  3.91e-02  0.700  10.5
    4    -1030.6101471553124611    -5.73e-02  1.13e-03  2.94e-02  2.22e-02  0.000  10.4
    5    -1030.7341114003756957    -1.24e-01  2.36e-04  8.10e-03  6.06e-03  0.000  10.8
                              *** Initializing SOSCF ***
---------------------------------------S-O-S-C-F--------------------------------------
Iteration    Energy (Eh)           Delta-E    RMSDP     MaxDP     MaxGrad    Time(sec)
--------------------------------------------------------------------------------------
    6    -1030.7347013352064096    -5.90e-04  6.95e-05  2.13e-03  1.99e-03    10.2
               *** Restarting incremental Fock matrix formation ***
    7    -1030.7346294739195400     7.19e-05  3.90e-05  9.81e-04  1.88e-04    20.0
    8    -1030.7346284369195928     1.04e-06  1.69e-05  5.25e-04  5.07e-04    13.5
    9    -1030.7346328062139946    -4.37e-06  8.92e-06  2.60e-04  7.39e-05    12.0
   10    -1030.7346328109579190    -4.74e-09  2.96e-06  1.32e-04  4.30e-05    12.7
                 **** Energy Check signals convergence ****

               *****************************************************
               *                     SUCCESS                       *
               *           SCF CONVERGED AFTER  10 CYCLES          *
               *****************************************************

Recomputing exchange energy using gridx3       ... done (   29.058 sec)
Old exchange energy                            :    -26.468824672 Eh
New exchange energy                            :    -26.468790345 Eh
Exchange energy change after final integration :      0.000034327 Eh
Total energy after final integration           :  -1030.734598611 Eh
             **** ENERGY FILE WAS UPDATED (Catechin.en.tmp) ****

----------------
TOTAL SCF ENERGY
----------------

Total Energy       :      -1030.73459861141032 Eh          -28047.71435 eV

Components:
Nuclear Repulsion  :       1637.93134205567731 Eh           44570.37773 eV
Electronic Energy  :      -2668.66597499419731 Eh          -72618.09301 eV
One Electron Energy:      -4662.74343701535872 Eh         -126879.69936 eV
Two Electron Energy:       1994.07746202116118 Eh           54261.60635 eV

Virial components:
Potential Energy   :      -2055.73731434785759 Eh          -55939.45623 eV
Kinetic Energy     :       1025.00271573644727 Eh           27891.74188 eV
Virial Ratio       :          2.00559206603745

DFT components:
N(Alpha)           :       75.999990218550 electrons
N(Beta)            :       75.999990218550 electrons
N(Total)           :      151.999980437100 electrons
E(X)               :     -105.214381398623 Eh       
E(C)               :       -6.208651804744 Eh       
E(XC)              :     -111.423033203367 Eh       

---------------
SCF CONVERGENCE
---------------

  Last Energy change         ...    4.7439e-09  Tolerance :   1.0000e-08
  Last MAX-Density change    ...    1.3191e-04  Tolerance :   1.0000e-07
  Last RMS-Density change    ...    2.9631e-06  Tolerance :   5.0000e-09
  Last DIIS Error            ...    1.9929e-03  Tolerance :   5.0000e-07
  Last Orbital Gradient      ...    4.2985e-05  Tolerance :   1.0000e-05
  Last Orbital Rotation      ...    7.7650e-05  Tolerance :   1.0000e-05


----------------
ORBITAL ENERGIES
----------------

  NO   OCC          E(Eh)            E(eV) 
   0   2.0000     -19.171951      -521.6953 
   1   2.0000     -19.168798      -521.6095 
   2   2.0000     -19.167074      -521.5626 
   3   2.0000     -19.161858      -521.4207 
   4   2.0000     -19.161487      -521.4106 
   5   2.0000     -19.136527      -520.7314 
   6   2.0000     -10.242120      -278.7023 
   7   2.0000     -10.239958      -278.6434 
   8   2.0000     -10.238695      -278.6091 
   9   2.0000     -10.237663      -278.5810 
  10   2.0000     -10.236681      -278.5543 
  11   2.0000     -10.236177      -278.5405 
  12   2.0000     -10.231996      -278.4268 
  13   2.0000     -10.180988      -277.0388 
  14   2.0000     -10.177760      -276.9509 
  15   2.0000     -10.177520      -276.9444 
  16   2.0000     -10.173843      -276.8443 
  17   2.0000     -10.173461      -276.8340 
  18   2.0000     -10.173249      -276.8282 
  19   2.0000     -10.165752      -276.6242 
  20   2.0000     -10.164140      -276.5803 
  21   2.0000      -1.062101       -28.9012 
  22   2.0000      -1.058502       -28.8033 
  23   2.0000      -1.057715       -28.7819 
  24   2.0000      -1.054070       -28.6827 
  25   2.0000      -1.040235       -28.3062 
  26   2.0000      -1.014316       -27.6009 
  27   2.0000      -0.847971       -23.0745 
  28   2.0000      -0.839379       -22.8407 
  29   2.0000      -0.792899       -21.5759 
  30   2.0000      -0.766195       -20.8492 
  31   2.0000      -0.735487       -20.0136 
  32   2.0000      -0.729411       -19.8483 
  33   2.0000      -0.715970       -19.4825 
  34   2.0000      -0.669175       -18.2092 
  35   2.0000      -0.634383       -17.2624 
  36   2.0000      -0.627901       -17.0860 
  37   2.0000      -0.615411       -16.7462 
  38   2.0000      -0.589944       -16.0532 
  39   2.0000      -0.581156       -15.8141 
  40   2.0000      -0.552185       -15.0257 
  41   2.0000      -0.540166       -14.6987 
  42   2.0000      -0.532788       -14.4979 
  43   2.0000      -0.514128       -13.9901 
  44   2.0000      -0.499951       -13.6044 
  45   2.0000      -0.492956       -13.4140 
  46   2.0000      -0.480026       -13.0622 
  47   2.0000      -0.475381       -12.9358 
  48   2.0000      -0.463190       -12.6040 
  49   2.0000      -0.448663       -12.2087 
  50   2.0000      -0.437666       -11.9095 
  51   2.0000      -0.435078       -11.8391 
  52   2.0000      -0.423937       -11.5359 
  53   2.0000      -0.418512       -11.3883 
  54   2.0000      -0.414690       -11.2843 
  55   2.0000      -0.401592       -10.9279 
  56   2.0000      -0.397257       -10.8099 
  57   2.0000      -0.390552       -10.6275 
  58   2.0000      -0.388498       -10.5716 
  59   2.0000      -0.374560       -10.1923 
  60   2.0000      -0.367294        -9.9946 
  61   2.0000      -0.363779        -9.8989 
  62   2.0000      -0.358740        -9.7618 
  63   2.0000      -0.355016        -9.6605 
  64   2.0000      -0.352931        -9.6037 
  65   2.0000      -0.344975        -9.3872 
  66   2.0000      -0.333558        -9.0766 
  67   2.0000      -0.329421        -8.9640 
  68   2.0000      -0.316107        -8.6017 
  69   2.0000      -0.302617        -8.2346 
  70   2.0000      -0.274879        -7.4798 
  71   2.0000      -0.263668        -7.1748 
  72   2.0000      -0.230554        -6.2737 
  73   2.0000      -0.209787        -5.7086 
  74   2.0000      -0.204738        -5.5712 
  75   2.0000      -0.199427        -5.4267 
  76   0.0000       0.005342         0.1454 
  77   0.0000       0.021343         0.5808 
  78   0.0000       0.023049         0.6272 
  79   0.0000       0.027378         0.7450 
  80   0.0000       0.068437         1.8623 
  81   0.0000       0.069737         1.8976 
  82   0.0000       0.070183         1.9098 
  83   0.0000       0.075092         2.0434 
  84   0.0000       0.080828         2.1994 
  85   0.0000       0.101010         2.7486 
  86   0.0000       0.113238         3.0814 
*Only the first 10 virtual orbitals were printed.

                    ********************************
                    * MULLIKEN POPULATION ANALYSIS *
                    ********************************

-----------------------
MULLIKEN ATOMIC CHARGES
-----------------------
   0 O :   -0.516524
   1 O :   -0.642155
   2 O :   -0.643252
   3 O :   -0.645498
   4 O :   -0.633399
   5 O :   -0.631543
   6 C :    0.135677
   7 C :    0.038406
   8 C :   -0.346823
   9 C :    0.023460
  10 C :    0.331949
  11 C :    0.159452
  12 C :    0.317519
  13 C :   -0.302870
  14 C :   -0.259814
  15 C :   -0.187393
  16 C :   -0.271414
  17 C :    0.384685
  18 C :    0.330640
  19 C :   -0.216229
  20 C :    0.329819
  21 H :    0.123227
  22 H :    0.142475
  23 H :    0.165397
  24 H :    0.145276
  25 H :    0.122060
  26 H :    0.124239
  27 H :    0.401677
  28 H :    0.124935
  29 H :    0.121078
  30 H :    0.121736
  31 H :    0.416269
  32 H :    0.413186
  33 H :    0.411971
  34 H :    0.411784
Sum of atomic charges:   -0.0000000

--------------------------------
MULLIKEN REDUCED ORBITAL CHARGES
--------------------------------
  0 O s       :     3.897514  s :     3.897514
      pz      :     1.780145  p :     4.588523
      px      :     1.297205
      py      :     1.511172
      dz2     :     0.004338  d :     0.030487
      dxz     :     0.004913
      dyz     :     0.003618
      dx2y2   :     0.009834
      dxy     :     0.007784

  1 O s       :     3.893975  s :     3.893975
      pz      :     1.661993  p :     4.721817
      px      :     1.774730
      py      :     1.285093
      dz2     :     0.003353  d :     0.026363
      dxz     :     0.004409
      dyz     :     0.009749
      dx2y2   :     0.002973
      dxy     :     0.005879

  2 O s       :     3.891001  s :     3.891001
      pz      :     1.846127  p :     4.723667
      px      :     1.329660
      py      :     1.547880
      dz2     :     0.004636  d :     0.028584
      dxz     :     0.000943
      dyz     :     0.005062
      dx2y2   :     0.012464
      dxy     :     0.005480

  3 O s       :     3.888926  s :     3.888926
      pz      :     1.847134  p :     4.727627
      px      :     1.621553
      py      :     1.258939
      dz2     :     0.004341  d :     0.028945
      dxz     :     0.004034
      dyz     :     0.002658
      dx2y2   :     0.003549
      dxy     :     0.014363

  4 O s       :     3.891255  s :     3.891255
      pz      :     1.298040  p :     4.713288
      px      :     1.602674
      py      :     1.812574
      dz2     :     0.002749  d :     0.028857
      dxz     :     0.013349
      dyz     :     0.003282
      dx2y2   :     0.006027
      dxy     :     0.003449

  5 O s       :     3.891022  s :     3.891022
      pz      :     1.546467  p :     4.711619
      px      :     1.335810
      py      :     1.829343
      dz2     :     0.008553  d :     0.028902
      dxz     :     0.008206
      dyz     :     0.002921
      dx2y2   :     0.004310
      dxy     :     0.004912

  6 C s       :     3.133832  s :     3.133832
      pz      :     0.989460  p :     2.662168
      px      :     0.887089
      py      :     0.785619
      dz2     :     0.015618  d :     0.068323
      dxz     :     0.006511
      dyz     :     0.013627
      dx2y2   :     0.016630
      dxy     :     0.015938

  7 C s       :     3.177131  s :     3.177131
      pz      :     1.004603  p :     2.716875
      px      :     0.932021
      py      :     0.780251
      dz2     :     0.015416  d :     0.067588
      dxz     :     0.006454
      dyz     :     0.014101
      dx2y2   :     0.014356
      dxy     :     0.017263

  8 C s       :     3.250816  s :     3.250816
      pz      :     1.073432  p :     3.055111
      px      :     0.949775
      py      :     1.031904
      dz2     :     0.006973  d :     0.040896
      dxz     :     0.005299
      dyz     :     0.012840
      dx2y2   :     0.007754
      dxy     :     0.008030

  9 C s       :     3.096706  s :     3.096706
      pz      :     1.113099  p :     2.842224
      px      :     0.884421
      py      :     0.844704
      dz2     :     0.003359  d :     0.037609
      dxz     :     0.005284
      dyz     :     0.006263
      dx2y2   :     0.012306
      dxy     :     0.010398

 10 C s       :     3.086235  s :     3.086235
      pz      :     0.951955  p :     2.509855
      px      :     0.671297
      py      :     0.886603
      dz2     :     0.005323  d :     0.071961
      dxz     :     0.015601
      dyz     :     0.009032
      dx2y2   :     0.022535
      dxy     :     0.019471

 11 C s       :     3.116016  s :     3.116016
      pz      :     0.850037  p :     2.685515
      px      :     0.873114
      py      :     0.962364
      dz2     :     0.009957  d :     0.039017
      dxz     :     0.011489
      dyz     :     0.006782
      dx2y2   :     0.005977
      dxy     :     0.004812

 12 C s       :     3.085833  s :     3.085833
      pz      :     0.946797  p :     2.524721
      px      :     0.870025
      py      :     0.707899
      dz2     :     0.005361  d :     0.071927
      dxz     :     0.010045
      dyz     :     0.014442
      dx2y2   :     0.020919
      dxy     :     0.021161

 13 C s       :     3.169603  s :     3.169603
      pz      :     1.154356  p :     3.100903
      px      :     0.952069
      py      :     0.994478
      dz2     :     0.003515  d :     0.032364
      dxz     :     0.005070
      dyz     :     0.003165
      dx2y2   :     0.009788
      dxy     :     0.010826

 14 C s       :     3.182853  s :     3.182853
      pz      :     1.026532  p :     3.042206
      px      :     0.947965
      py      :     1.067708
      dz2     :     0.007999  d :     0.034756
      dxz     :     0.011598
      dyz     :     0.003759
      dx2y2   :     0.005862
      dxy     :     0.005537

 15 C s       :     3.193507  s :     3.193507
      pz      :     0.979931  p :     2.957397
      px      :     0.962362
      py      :     1.015103
      dz2     :     0.009003  d :     0.036489
      dxz     :     0.010796
      dyz     :     0.004589
      dx2y2   :     0.005390
      dxy     :     0.006712

 16 C s       :     3.159462  s :     3.159462
      pz      :     1.159916  p :     3.079607
      px      :     0.919795
      py      :     0.999897
      dz2     :     0.003675  d :     0.032345
      dxz     :     0.002434
      dyz     :     0.005637
      dx2y2   :     0.011586
      dxy     :     0.009013

 17 C s       :     3.060445  s :     3.060445
      pz      :     0.937659  p :     2.481776
      px      :     0.814011
      py      :     0.730106
      dz2     :     0.005280  d :     0.073093
      dxz     :     0.011325
      dyz     :     0.013603
      dx2y2   :     0.019084
      dxy     :     0.023800

 18 C s       :     3.053964  s :     3.053964
      pz      :     0.702618  p :     2.546236
      px      :     0.880272
      py      :     0.963346
      dz2     :     0.017005  d :     0.069161
      dxz     :     0.021141
      dyz     :     0.013970
      dx2y2   :     0.008106
      dxy     :     0.008939

 19 C s       :     3.173988  s :     3.173988
      pz      :     0.936955  p :     3.007234
      px      :     1.012524
      py      :     1.057755
      dz2     :     0.007325  d :     0.035007
      dxz     :     0.013024
      dyz     :     0.004199
      dx2y2   :     0.005470
      dxy     :     0.004989

 20 C s       :     3.050235  s :     3.050235
      pz      :     0.917765  p :     2.550666
      px      :     0.656963
      py      :     0.975939
      dz2     :     0.013385  d :     0.069280
      dxz     :     0.019224
      dyz     :     0.006709
      dx2y2   :     0.013644
      dxy     :     0.016318

 21 H s       :     0.876773  s :     0.876773

 22 H s       :     0.857525  s :     0.857525

 23 H s       :     0.834603  s :     0.834603

 24 H s       :     0.854724  s :     0.854724

 25 H s       :     0.877940  s :     0.877940

 26 H s       :     0.875761  s :     0.875761

 27 H s       :     0.598323  s :     0.598323

 28 H s       :     0.875065  s :     0.875065

 29 H s       :     0.878922  s :     0.878922

 30 H s       :     0.878264  s :     0.878264

 31 H s       :     0.583731  s :     0.583731

 32 H s       :     0.586814  s :     0.586814

 33 H s       :     0.588029  s :     0.588029

 34 H s       :     0.588216  s :     0.588216



                     *******************************
                     * LOEWDIN POPULATION ANALYSIS *
                     *******************************

----------------------
LOEWDIN ATOMIC CHARGES
----------------------
   0 O :   -0.154592
   1 O :   -0.404629
   2 O :   -0.316850
   3 O :   -0.317007
   4 O :   -0.314046
   5 O :   -0.313183
   6 C :   -0.018266
   7 C :    0.011078
   8 C :   -0.235099
   9 C :   -0.111430
  10 C :    0.084277
  11 C :   -0.027421
  12 C :    0.083251
  13 C :   -0.229130
  14 C :   -0.165474
  15 C :   -0.136906
  16 C :   -0.229509
  17 C :    0.080029
  18 C :    0.050199
  19 C :   -0.174493
  20 C :    0.050888
  21 H :    0.110273
  22 H :    0.125724
  23 H :    0.137889
  24 H :    0.130661
  25 H :    0.134555
  26 H :    0.130187
  27 H :    0.316832
  28 H :    0.130751
  29 H :    0.134224
  30 H :    0.130118
  31 H :    0.328755
  32 H :    0.326662
  33 H :    0.325786
  34 H :    0.325897

-------------------------------
LOEWDIN REDUCED ORBITAL CHARGES
-------------------------------
  0 O s       :     3.469471  s :     3.469471
      pz      :     1.768768  p :     4.617236
      px      :     1.314629
      py      :     1.533839
      dz2     :     0.008391  d :     0.067885
      dxz     :     0.011241
      dyz     :     0.006481
      dx2y2   :     0.022749
      dxy     :     0.019023

  1 O s       :     3.566698  s :     3.566698
      pz      :     1.686801  p :     4.789797
      px      :     1.775919
      py      :     1.327077
      dz2     :     0.005501  d :     0.048134
      dxz     :     0.005540
      dyz     :     0.017556
      dx2y2   :     0.007475
      dxy     :     0.012062

  2 O s       :     3.524226  s :     3.524226
      pz      :     1.831615  p :     4.739937
      px      :     1.344677
      py      :     1.563645
      dz2     :     0.007035  d :     0.052687
      dxz     :     0.002357
      dyz     :     0.008307
      dx2y2   :     0.023590
      dxy     :     0.011398

  3 O s       :     3.524726  s :     3.524726
      pz      :     1.831698  p :     4.739228
      px      :     1.625181
      py      :     1.282348
      dz2     :     0.006627  d :     0.053053
      dxz     :     0.005058
      dyz     :     0.006340
      dx2y2   :     0.008396
      dxy     :     0.026632

  4 O s       :     3.523482  s :     3.523482
      pz      :     1.323084  p :     4.736952
      px      :     1.610989
      py      :     1.802879
      dz2     :     0.008509  d :     0.053612
      dxz     :     0.024682
      dyz     :     0.008191
      dx2y2   :     0.007733
      dxy     :     0.004498

  5 O s       :     3.523471  s :     3.523471
      pz      :     1.554991  p :     4.736055
      px      :     1.362509
      py      :     1.818555
      dz2     :     0.013584  d :     0.053657
      dxz     :     0.016511
      dyz     :     0.003271
      dx2y2   :     0.009825
      dxy     :     0.010466

  6 C s       :     2.896266  s :     2.896266
      pz      :     1.070756  p :     2.968630
      px      :     0.992164
      py      :     0.905711
      dz2     :     0.032398  d :     0.153370
      dxz     :     0.013232
      dyz     :     0.032012
      dx2y2   :     0.040356
      dxy     :     0.035371

  7 C s       :     2.896778  s :     2.896778
      pz      :     1.075636  p :     2.943738
      px      :     0.971745
      py      :     0.896356
      dz2     :     0.031967  d :     0.148406
      dxz     :     0.012512
      dyz     :     0.032904
      dx2y2   :     0.034044
      dxy     :     0.036979

  8 C s       :     2.927419  s :     2.927419
      pz      :     1.116877  p :     3.219759
      px      :     1.035402
      py      :     1.067481
      dz2     :     0.014065  d :     0.087920
      dxz     :     0.010350
      dyz     :     0.025561
      dx2y2   :     0.018998
      dxy     :     0.018946

  9 C s       :     2.860733  s :     2.860733
      pz      :     1.096343  p :     3.153578
      px      :     1.026564
      py      :     1.030671
      dz2     :     0.007323  d :     0.097119
      dxz     :     0.011142
      dyz     :     0.012407
      dx2y2   :     0.034956
      dxy     :     0.031290

 10 C s       :     2.845157  s :     2.845157
      pz      :     0.954132  p :     2.898165
      px      :     0.870050
      py      :     1.073983
      dz2     :     0.011880  d :     0.172401
      dxz     :     0.032933
      dyz     :     0.019609
      dx2y2   :     0.055964
      dxy     :     0.052015

 11 C s       :     2.876428  s :     2.876428
      pz      :     1.053442  p :     3.052752
      px      :     1.012577
      py      :     0.986734
      dz2     :     0.027009  d :     0.098240
      dxz     :     0.031087
      dyz     :     0.015861
      dx2y2   :     0.013944
      dxy     :     0.010340

 12 C s       :     2.847117  s :     2.847117
      pz      :     0.945215  p :     2.898254
      px      :     1.033115
      py      :     0.919924
      dz2     :     0.011883  d :     0.171378
      dxz     :     0.021839
      dyz     :     0.030943
      dx2y2   :     0.052430
      dxy     :     0.054283

 13 C s       :     2.909488  s :     2.909488
      pz      :     1.137177  p :     3.240581
      px      :     1.041988
      py      :     1.061416
      dz2     :     0.006849  d :     0.079061
      dxz     :     0.010565
      dyz     :     0.005798
      dx2y2   :     0.027318
      dxy     :     0.028531

 14 C s       :     2.913315  s :     2.913315
      pz      :     1.070768  p :     3.169662
      px      :     1.042583
      py      :     1.056311
      dz2     :     0.019592  d :     0.082498
      dxz     :     0.028392
      dyz     :     0.008131
      dx2y2   :     0.013820
      dxy     :     0.012564

 15 C s       :     2.914046  s :     2.914046
      pz      :     1.061430  p :     3.137617
      px      :     1.056788
      py      :     1.019399
      dz2     :     0.020330  d :     0.085244
      dxz     :     0.027344
      dyz     :     0.008263
      dx2y2   :     0.014183
      dxy     :     0.015123

 16 C s       :     2.907650  s :     2.907650
      pz      :     1.139816  p :     3.242431
      px      :     1.058800
      py      :     1.043815
      dz2     :     0.007099  d :     0.079428
      dxz     :     0.003871
      dyz     :     0.012433
      dx2y2   :     0.029532
      dxy     :     0.026493

 17 C s       :     2.845370  s :     2.845370
      pz      :     0.940149  p :     2.900197
      px      :     1.027120
      py      :     0.932929
      dz2     :     0.011930  d :     0.174404
      dxz     :     0.024438
      dyz     :     0.029273
      dx2y2   :     0.050075
      dxy     :     0.058688

 18 C s       :     2.845993  s :     2.845993
      pz      :     0.908503  p :     2.937596
      px      :     1.049365
      py      :     0.979728
      dz2     :     0.043859  d :     0.166212
      dxz     :     0.052461
      dyz     :     0.030972
      dx2y2   :     0.019029
      dxy     :     0.019890

 19 C s       :     2.913948  s :     2.913948
      pz      :     1.047399  p :     3.176538
      px      :     1.076265
      py      :     1.052874
      dz2     :     0.018375  d :     0.084007
      dxz     :     0.031292
      dyz     :     0.009041
      dx2y2   :     0.013429
      dxy     :     0.011871

 20 C s       :     2.846283  s :     2.846283
      pz      :     1.066988  p :     2.936354
      px      :     0.878753
      py      :     0.990613
      dz2     :     0.033300  d :     0.166474
      dxz     :     0.049852
      dyz     :     0.014949
      dx2y2   :     0.032909
      dxy     :     0.035464

 21 H s       :     0.889727  s :     0.889727

 22 H s       :     0.874276  s :     0.874276

 23 H s       :     0.862111  s :     0.862111

 24 H s       :     0.869339  s :     0.869339

 25 H s       :     0.865445  s :     0.865445

 26 H s       :     0.869813  s :     0.869813

 27 H s       :     0.683168  s :     0.683168

 28 H s       :     0.869249  s :     0.869249

 29 H s       :     0.865776  s :     0.865776

 30 H s       :     0.869882  s :     0.869882

 31 H s       :     0.671245  s :     0.671245

 32 H s       :     0.673338  s :     0.673338

 33 H s       :     0.674214  s :     0.674214

 34 H s       :     0.674103  s :     0.674103



                      *****************************
                      * MAYER POPULATION ANALYSIS *
                      *****************************

  NA   - Mulliken gross atomic population
  ZA   - Total nuclear charge
  QA   - Mulliken gross atomic charge
  VA   - Mayer's total valence
  BVA  - Mayer's bonded valence
  FA   - Mayer's free valence

  ATOM       NA         ZA         QA         VA         BVA        FA
  0 O      8.5165     8.0000    -0.5165     1.9620     1.9620    -0.0000
  1 O      8.6422     8.0000    -0.6422     1.7712     1.7712     0.0000
  2 O      8.6433     8.0000    -0.6433     1.8771     1.8771     0.0000
  3 O      8.6455     8.0000    -0.6455     1.8690     1.8690     0.0000
  4 O      8.6334     8.0000    -0.6334     1.8675     1.8675    -0.0000
  5 O      8.6315     8.0000    -0.6315     1.8696     1.8696    -0.0000
  6 C      5.8643     6.0000     0.1357     3.8046     3.8046     0.0000
  7 C      5.9616     6.0000     0.0384     3.8207     3.8207    -0.0000
  8 C      6.3468     6.0000    -0.3468     3.8338     3.8338     0.0000
  9 C      5.9765     6.0000     0.0235     3.8361     3.8361     0.0000
 10 C      5.6681     6.0000     0.3319     3.9043     3.9043    -0.0000
 11 C      5.8405     6.0000     0.1595     3.9807     3.9807    -0.0000
 12 C      5.6825     6.0000     0.3175     3.8547     3.8547    -0.0000
 13 C      6.3029     6.0000    -0.3029     3.8367     3.8367    -0.0000
 14 C      6.2598     6.0000    -0.2598     3.8992     3.8992    -0.0000
 15 C      6.1874     6.0000    -0.1874     3.9554     3.9554     0.0000
 16 C      6.2714     6.0000    -0.2714     3.8380     3.8380    -0.0000
 17 C      5.6153     6.0000     0.3847     3.8739     3.8739    -0.0000
 18 C      5.6694     6.0000     0.3306     3.8328     3.8328    -0.0000
 19 C      6.2162     6.0000    -0.2162     3.9108     3.9108    -0.0000
 20 C      5.6702     6.0000     0.3298     3.8496     3.8496    -0.0000
 21 H      0.8768     1.0000     0.1232     0.9312     0.9312    -0.0000
 22 H      0.8575     1.0000     0.1425     0.9316     0.9316    -0.0000
 23 H      0.8346     1.0000     0.1654     0.9293     0.9293     0.0000
 24 H      0.8547     1.0000     0.1453     0.9357     0.9357     0.0000
 25 H      0.8779     1.0000     0.1221     0.9453     0.9453    -0.0000
 26 H      0.8758     1.0000     0.1242     0.9454     0.9454    -0.0000
 27 H      0.5983     1.0000     0.4017     0.8045     0.8045    -0.0000
 28 H      0.8751     1.0000     0.1249     0.9417     0.9417    -0.0000
 29 H      0.8789     1.0000     0.1211     0.9445     0.9445    -0.0000
 30 H      0.8783     1.0000     0.1217     0.9406     0.9406    -0.0000
 31 H      0.5837     1.0000     0.4163     0.7988     0.7988    -0.0000
 32 H      0.5868     1.0000     0.4132     0.8004     0.8004    -0.0000
 33 H      0.5880     1.0000     0.4120     0.8019     0.8019     0.0000
 34 H      0.5882     1.0000     0.4118     0.8018     0.8018    -0.0000

  Mayer bond orders larger than 0.100000
B(  0-O ,  7-C ) :   0.8686 B(  0-O , 10-C ) :   0.9245 B(  1-O ,  6-C ) :   0.9147 
B(  1-O , 27-H ) :   0.7822 B(  2-O , 12-C ) :   0.9641 B(  2-O , 31-H ) :   0.7745 
B(  3-O , 17-C ) :   0.9431 B(  3-O , 32-H ) :   0.7780 B(  4-O , 18-C ) :   0.9622 
B(  4-O , 33-H ) :   0.7760 B(  5-O , 20-C ) :   0.9696 B(  5-O , 34-H ) :   0.7766 
B(  6-C ,  7-C ) :   0.9569 B(  6-C ,  8-C ) :   0.9763 B(  6-C , 21-H ) :   0.9171 
B(  7-C , 11-C ) :   0.9894 B(  7-C , 22-H ) :   0.9089 B(  8-C ,  9-C ) :   0.9660 
B(  8-C , 23-H ) :   0.9178 B(  8-C , 24-H ) :   0.9238 B(  9-C , 10-C ) :   1.3837 
B(  9-C , 12-C ) :   1.3579 B( 10-C , 13-C ) :   1.3753 B( 11-C , 14-C ) :   1.3997 
B( 11-C , 15-C ) :   1.4461 B( 12-C , 16-C ) :   1.3638 B( 13-C , 17-C ) :   1.3719 
B( 13-C , 25-H ) :   0.9101 B( 14-C , 18-C ) :   1.3911 B( 14-C , 26-H ) :   0.9105 
B( 15-C , 19-C ) :   1.4143 B( 15-C , 28-H ) :   0.9211 B( 16-C , 17-C ) :   1.3935 
B( 16-C , 29-H ) :   0.9124 B( 18-C , 20-C ) :   1.3391 B( 19-C , 20-C ) :   1.4049 
B( 19-C , 30-H ) :   0.9211 

-------
TIMINGS
-------

Total SCF time: 0 days 0 hours 2 min 53 sec 

Total time                  ....     173.319 sec
Sum of individual times     ....     161.909 sec  ( 93.4%)

SCF preparation             ....       1.522 sec  (  0.9%)
Fock matrix formation       ....     156.951 sec  ( 90.6%)
  Startup                   ....       0.176 sec  (  0.1% of F)
  Split-RI-J                ....      15.468 sec  (  9.9% of F)
  Chain of spheres X        ....     113.183 sec  ( 72.1% of F)
  XC integration            ....      36.639 sec  ( 23.3% of F)
    XC Preparation          ....       0.000 sec  (  0.0% of XC)
    Basis function eval.    ....       5.703 sec  ( 15.6% of XC)
    Density eval.           ....       4.659 sec  ( 12.7% of XC)
    XC-Functional eval.     ....       0.765 sec  (  2.1% of XC)
    XC-Potential eval.      ....       4.419 sec  ( 12.1% of XC)
Diagonalization             ....       0.000 sec  (  0.0%)
Density matrix formation    ....       0.643 sec  (  0.4%)
Total Energy calculation    ....       0.199 sec  (  0.1%)
Population analysis         ....       0.558 sec  (  0.3%)
Orbital Transformation      ....       0.158 sec  (  0.1%)
Orbital Orthonormalization  ....       0.000 sec  (  0.0%)
DIIS solution               ....       1.321 sec  (  0.8%)
SOSCF solution              ....       0.558 sec  (  0.3%)
Finished LeanSCF after 173.6 sec

Maximum memory used throughout the entire LEANSCF-calculation: 50.2 MB

------------------------------------------------------------------------------
                         ORCA PROPERTY INTEGRAL CALCULATIONS
------------------------------------------------------------------------------

GBWName                                   ... Catechin.gbw
Number of atoms                           ...     35
Number of basis functions                 ...    322
Max core memory                           ...   4096 MB

Dipole integrals                          ... YES
Quadrupole integrals                      ...  NO
Linear momentum integrals                 ...  NO
Angular momentum integrals                ...  NO
Higher moments length integrals           ...  NO
Higher moments velocity integrals         ...  NO
Kinetic energy integrals                  ...  NO
GIAO right hand sides                     ...  NO
GIAO dipole derivative integrals          ...  NO
SOC integrals                             ...  NO
EPR diamagnetic integrals (GIAO)          ...  NO
EPR gauge integrals                       ...  NO
Field gradient integrals                  ...  NO (   0 nuclei)
Spin-dipole/Fermi contact integrals       ...  NO (   0 nuclei)
Contact density integrals                 ...  NO (   0 nuclei)
Nucleus-orbit integrals                   ...  NO (   0 nuclei)
Geometric perturbations                   ...  NO (  35 nuclei)

Choice of electric origin   ... Center of mass
Position of electric origin ... ( -0.0155, -0.0165,  0.0514) 
Choice of magnetic origin   ... GIAO
Position of magnetic origin ... (  0.0000,  0.0000,  0.0000) 

Calculating integrals                     ... Electric Dipole (Length)     done (  0.1 sec)

Property integrals calculated in   0.1 sec

Maximum memory used throughout the entire PROPINT-calculation: 25.9 MB

-------------------------   --------------------
FINAL SINGLE POINT ENERGY     -1030.734598611410
-------------------------   --------------------

------------------------------------------------------------------------------
                         ORCA SCF GRADIENT CALCULATION
------------------------------------------------------------------------------

Nuc. rep. gradient        (SHARK) ... done (  0.0 sec)
HCore & Overlap gradient  (SHARK) ... done (  1.1 sec)
Split-RIJ-J gradient      (SHARK) ... done (  5.2 sec)
COSX-gradient                     ... done ( 67.2 sec)
XC gradient                       ... done ( 17.4 sec)

------------------
CARTESIAN GRADIENT
------------------

   1   O   :   -0.005114185    0.010986344   -0.005005926
   2   O   :    0.006803937   -0.007641514    0.004631383
   3   O   :    0.003114151    0.004285874   -0.000047439
   4   O   :   -0.002785449   -0.003727328    0.000209710
   5   O   :    0.010269306   -0.002029102    0.001030513
   6   O   :    0.002166217   -0.003490050   -0.009982054
   7   C   :   -0.011754487    0.010857202    0.001117550
   8   C   :    0.026172984    0.001827297    0.000168768
   9   C   :   -0.003289649    0.001650478   -0.003288688
  10   C   :    0.002444560    0.005767049   -0.000851688
  11   C   :   -0.008585737   -0.007701210   -0.002849603
  12   C   :    0.002015142    0.001140807    0.006961287
  13   C   :   -0.007106902   -0.009165538    0.000266235
  14   C   :    0.002217810   -0.002386455    0.001126378
  15   C   :   -0.000494648    0.005289213    0.015591324
  16   C   :   -0.003790073    0.000011891   -0.003254514
  17   C   :   -0.004119238    0.002513115   -0.000745416
  18   C   :    0.004414177   -0.006107359    0.000659024
  19   C   :   -0.014784271   -0.002001244   -0.017230268
  20   C   :   -0.015831126    0.002926464   -0.003510841
  21   C   :    0.016241797    0.001254930    0.015989883
  22   H   :    0.000469304   -0.007372507   -0.000248726
  23   H   :   -0.001668184    0.003431913   -0.001507720
  24   H   :    0.004552629    0.002929792   -0.000049540
  25   H   :   -0.002864550    0.000902193    0.000535396
  26   H   :    0.000885536   -0.000748815    0.000464642
  27   H   :    0.000532805   -0.001177226   -0.001832098
  28   H   :   -0.000386736   -0.003835854    0.002425531
  29   H   :   -0.001082394   -0.000339345   -0.001407653
  30   H   :   -0.001509262    0.000347061   -0.000060342
  31   H   :    0.003547499   -0.000812630   -0.000244630
  32   H   :    0.002858899    0.000019170    0.000010759
  33   H   :   -0.001418966    0.001675313   -0.000515385
  34   H   :   -0.000820100    0.000336994    0.001184214
  35   H   :   -0.001300797    0.000383075    0.000259936

Difference to translation invariance:
           :   -0.0000000001    0.0000000000    0.0000000001

Difference to rotation invariance:
           :   -0.0000153085   -0.0000600439   -0.0000458908

Norm of the Cartesian gradient     ...    0.0615590080
RMS gradient                       ...    0.0060075440
MAX gradient                       ...    0.0261729840

-------
TIMINGS
-------

Total SCF gradient time     ....       90.848 sec

Densities                   ....       0.002 sec  (  0.0%)
One electron gradient       ....       1.059 sec  (  1.2%)
RI-J Coulomb gradient       ....       5.182 sec  (  5.7%)
COSX gradient               ....      67.246 sec  ( 74.0%)
XC gradient                 ....      17.355 sec  ( 19.1%)

Maximum memory used throughout the entire SCFGRAD-calculation: 56.8 MB
------------------------------------------------------------------------------
                         ORCA GEOMETRY RELAXATION STEP
------------------------------------------------------------------------------

Reading the OPT-File                    .... done
Getting information on internals        .... done
Copying old internal coords+grads       .... done
Making the new internal coordinates     .... (2022 redundants) done
Validating the new internal coordinates .... (2022 redundants) done
Calculating the B-matrix                .... done
Calculating the G,G- and P matrices     .... done
Transforming gradient to internals      .... done
Projecting the internal gradient        .... done
Number of atoms                         ....  35
Number of internal coordinates          .... 183
Current Energy                          .... -1030.734598611 Eh
Current gradient norm                   ....     0.061559008 Eh/bohr
Maximum allowed component of the step   ....  0.300
Current trust radius                    ....  0.300
Evaluating the initial hessian          ....  (Almloef) done
Projecting the Hessian                  .... done
Forming the augmented Hessian           .... done
Diagonalizing the augmented Hessian     .... done
Last element of RFO vector              ....  0.980615310
Lowest eigenvalues of augmented Hessian:
 -0.007810478  0.011099551  0.015043044  0.018208836  0.019454450
Length of the computed step             ....  0.199816260
The final length of the internal step   ....  0.199816260
Converting the step to Cartesian space:
 Initial RMS(Int)=    0.0147708430
Transforming coordinates:
 Iter   0:  RMS(Cart)=    0.0620043218 RMS(Int)=    1.5378143949
 Iter   5:  RMS(Cart)=    0.0000000097 RMS(Int)=    0.0000000053
done
Storing new coordinates                 .... done

                                .--------------------.
          ----------------------|Geometry convergence|-------------------------
          Item                value                   Tolerance       Converged
          ---------------------------------------------------------------------
          RMS gradient        0.0038057895            0.0001000000      NO
          MAX gradient        0.0149212086            0.0003000000      NO
          RMS step            0.0147708430            0.0020000000      NO
          MAX step            0.0577197465            0.0040000000      NO
          -------------------------------------------------------------------------
          ........................................................
          Max(Bonds)      0.0102      Max(Angles)    3.31
          Max(Dihed)        3.25      Max(Improp)    0.00
          ---------------------------------------------------------------------

The optimization has not yet converged - more geometry cycles are needed


    ---------------------------------------------------------------------------
                         Redundant Internal Coordinates
                            (Angstroem and degrees)

        Definition                    Value    dE/dq     Step     New-Value
    ----------------------------------------------------------------------------
     1. B(C   6,O   1)                1.4316  0.004680 -0.0051    1.4265   
     2. B(C   7,O   0)                1.4377 -0.003870  0.0046    1.4422   
     3. B(C   7,C   6)                1.5418  0.006523 -0.0090    1.5329   
     4. B(C   8,C   6)                1.5270 -0.005515  0.0073    1.5344   
     5. B(C   9,C   8)                1.4991 -0.008553  0.0102    1.5093   
     6. B(C  10,C   9)                1.3982 -0.001267  0.0007    1.3990   
     7. B(C  10,O   0)                1.3675 -0.003848  0.0034    1.3709   
     8. B(C  11,C   7)                1.5231  0.003915 -0.0053    1.5178   
     9. B(C  12,C   9)                1.4006 -0.002218  0.0018    1.4023   
    10. B(C  12,O   2)                1.3674 -0.001120  0.0010    1.3683   
    11. B(C  13,C  10)                1.3969 -0.004363  0.0037    1.4005   
    12. B(C  14,C  11)                1.4063  0.003844 -0.0036    1.4027   
    13. B(C  15,C  11)                1.4049  0.008941 -0.0082    1.3967   
    14. B(C  16,C  12)                1.3934 -0.004025  0.0035    1.3968   
    15. B(C  17,O   3)                1.3641 -0.004048  0.0034    1.3676   
    16. B(C  17,C  16)                1.3888 -0.008084  0.0069    1.3957   
    17. B(C  17,C  13)                1.3904 -0.004085  0.0036    1.3940   
    18. B(C  18,C  14)                1.3949 -0.001248  0.0011    1.3960   
    19. B(C  18,O   4)                1.3671 -0.002118  0.0018    1.3689   
    20. B(C  19,C  15)                1.3979 -0.000083  0.0000    1.3979   
    21. B(C  20,C  19)                1.3923 -0.004161  0.0037    1.3960   
    22. B(C  20,C  18)                1.3938 -0.007226  0.0064    1.4002   
    23. B(C  20,O   5)                1.3668 -0.002501  0.0021    1.3689   
    24. B(H  21,C   6)                1.0974 -0.001985  0.0029    1.1003   
    25. B(H  22,C   7)                1.0993  0.000339 -0.0005    1.0988   
    26. B(H  23,C   8)                1.0978 -0.000794  0.0012    1.0990   
    27. B(H  24,C   8)                1.0971 -0.001036  0.0015    1.0987   
    28. B(H  25,C  13)                1.0854 -0.001137  0.0016    1.0870   
    29. B(H  26,C  14)                1.0862 -0.001245  0.0018    1.0879   
    30. B(H  27,O   1)                0.9731  0.004210 -0.0044    0.9687   
    31. B(H  28,C  15)                1.0882  0.000980 -0.0014    1.0868   
    32. B(H  29,C  16)                1.0850 -0.001512  0.0021    1.0872   
    33. B(H  30,C  19)                1.0853 -0.001839  0.0026    1.0879   
    34. B(H  31,O   2)                0.9723  0.002823 -0.0030    0.9693   
    35. B(H  32,O   3)                0.9721  0.002248 -0.0024    0.9698   
    36. B(H  33,O   4)                0.9689  0.000203 -0.0002    0.9687   
    37. B(H  34,O   5)                0.9690  0.000309 -0.0003    0.9687   
    38. A(C   7,O   0,C  10)          115.52 -0.012503    1.83    117.35   
    39. A(C   6,O   1,H  27)          107.41  0.003049   -0.49    106.92   
    40. A(C  12,O   2,H  31)          108.60  0.000713   -0.11    108.49   
    41. A(C  17,O   3,H  32)          108.60 -0.000217    0.03    108.63   
    42. A(C  18,O   4,H  33)          108.91  0.002663   -0.41    108.51   
    43. A(C  20,O   5,H  34)          108.87  0.002464   -0.38    108.49   
    44. A(O   1,C   6,C   8)          108.68 -0.008846    2.22    110.89   
    45. A(C   8,C   6,H  21)          109.32  0.002876    0.31    109.63   
    46. A(C   7,C   6,C   8)          108.87 -0.006526    0.89    109.76   
    47. A(O   1,C   6,C   7)          111.33  0.014921   -3.31    108.03   
    48. A(C   7,C   6,H  21)          110.27  0.002350   -1.25    109.02   
    49. A(O   1,C   6,H  21)          108.34 -0.004997    1.23    109.57   
    50. A(C   6,C   7,C  11)          112.42 -0.005386    1.05    113.47   
    51. A(C  11,C   7,H  22)          108.30 -0.000497    0.42    108.72   
    52. A(C   6,C   7,H  22)          109.59  0.002428   -0.94    108.65   
    53. A(O   0,C   7,C  11)          106.16 -0.003540    0.94    107.10   
    54. A(O   0,C   7,H  22)          107.92 -0.002150    0.44    108.36   
    55. A(O   0,C   7,C   6)          112.25  0.008812   -1.81    110.45   
    56. A(C   6,C   8,C   9)          112.01  0.002211   -0.45    111.56   
    57. A(C   9,C   8,H  24)          110.83  0.001186   -0.11    110.73   
    58. A(C   6,C   8,H  24)          108.45 -0.003620    0.84    109.28   
    59. A(C   9,C   8,H  23)          108.87 -0.004732    1.06    109.93   
    60. A(C   6,C   8,H  23)          109.94  0.003713   -1.06    108.88   
    61. A(H  23,C   8,H  24)          106.59  0.001283   -0.30    106.29   
    62. A(C   8,C   9,C  10)          120.69  0.000053   -0.10    120.59   
    63. A(C  10,C   9,C  12)          118.51  0.004468   -0.60    117.91   
    64. A(C   8,C   9,C  12)          120.77 -0.004538    0.72    121.50   
    65. A(C   9,C  10,C  13)          120.72 -0.004982    0.64    121.35   
    66. A(O   0,C  10,C  13)          115.49 -0.002035    0.33    115.81   
    67. A(O   0,C  10,C   9)          123.77  0.006994   -0.94    122.83   
    68. A(C  14,C  11,C  15)          118.73 -0.000478   -0.03    118.70   
    69. A(C   7,C  11,C  15)          120.13 -0.001738    0.30    120.42   
    70. A(C   7,C  11,C  14)          121.14  0.002216   -0.26    120.88   
    71. A(O   2,C  12,C   9)          118.62  0.010859   -1.41    117.21   
    72. A(C   9,C  12,C  16)          121.23 -0.003628    0.45    121.68   
    73. A(O   2,C  12,C  16)          120.15 -0.007230    0.96    121.11   
    74. A(C  17,C  13,H  25)          121.31 -0.001066    0.15    121.46   
    75. A(C  10,C  13,H  25)          119.16 -0.000183    0.01    119.18   
    76. A(C  10,C  13,C  17)          119.53  0.001248   -0.17    119.36   
    77. A(C  11,C  14,C  18)          120.30 -0.005386    0.71    121.00   
    78. A(C  11,C  14,H  26)          119.49  0.000840   -0.06    119.43   
    79. A(C  18,C  14,H  26)          120.21  0.004548   -0.65    119.56   
    80. A(C  11,C  15,C  19)          120.79  0.001023   -0.21    120.58   
    81. A(C  19,C  15,H  28)          118.95 -0.002068    0.35    119.31   
    82. A(C  11,C  15,H  28)          120.25  0.001045   -0.14    120.11   
    83. A(C  17,C  16,H  29)          119.20 -0.000733    0.09    119.29   
    84. A(C  12,C  16,H  29)          121.63 -0.000087   -0.01    121.62   
    85. A(C  12,C  16,C  17)          119.17  0.000820   -0.08    119.09   
    86. A(C  13,C  17,C  16)          120.83  0.002067   -0.23    120.61   
    87. A(O   3,C  17,C  16)          117.76  0.002118   -0.30    117.46   
    88. A(O   3,C  17,C  13)          121.41 -0.004185    0.52    121.93   
    89. A(C  14,C  18,C  20)          120.30  0.003956   -0.47    119.83   
    90. A(O   4,C  18,C  20)          119.38  0.009110   -1.22    118.16   
    91. A(O   4,C  18,C  14)          120.32 -0.013066    1.69    122.01   
    92. A(C  20,C  19,H  30)          121.15  0.005636   -0.85    120.30   
    93. A(C  15,C  19,H  30)          119.12 -0.000825    0.17    119.29   
    94. A(C  15,C  19,C  20)          119.73 -0.004811    0.68    120.41   
    95. A(O   5,C  20,C  18)          119.46  0.008747   -1.18    118.28   
    96. A(C  18,C  20,C  19)          120.15  0.005695   -0.67    119.48   
    97. A(O   5,C  20,C  19)          120.39 -0.014442    1.85    122.24   
    98. D(C   8,C   6,O   1,H  27)     65.96  0.000385   -0.07     65.90   
    99. D(H  21,C   6,O   1,H  27)    -52.71  0.004754   -2.38    -55.10   
   100. D(C   7,C   6,O   1,H  27)   -174.13 -0.004223    0.43   -173.70   
   101. D(O   0,C   7,C   6,O   1)   -179.43  0.002808   -1.64   -181.07   
   102. D(C  11,C   7,O   0,C  10)    169.61 -0.001087    0.94    170.55   
   103. D(H  22,C   7,O   0,C  10)    -74.46 -0.004464    2.11    -72.35   
   104. D(C  11,C   7,C   6,O   1)     60.96  0.004946   -2.32     58.64   
   105. D(O   0,C   7,C   6,C   8)    -59.64 -0.003149   -0.36    -60.01   
   106. D(C  11,C   7,C   6,H  21)    -59.33 -0.000123   -0.86    -60.19   
   107. D(C  11,C   7,C   6,C   8)   -179.25 -0.001011   -1.04   -180.29   
   108. D(C   6,C   7,O   0,C  10)     46.41  0.002598    0.11     46.51   
   109. D(O   0,C   7,C   6,H  21)     60.28 -0.002260   -0.19     60.09   
   110. D(C   9,C   8,C   6,H  21)    -77.40 -0.004275    1.70    -75.69   
   111. D(C   9,C   8,C   6,O   1)    164.54  0.005206   -1.24    163.30   
   112. D(C   9,C   8,C   6,C   7)     43.12 -0.003645    0.90     44.02   
   113. D(H  23,C   8,C   6,O   1)     43.36  0.007162   -1.55     41.80   
   114. D(H  23,C   8,C   6,C   7)    -78.07 -0.001689    0.59    -77.48   
   115. D(H  23,C   8,C   6,H  21)    161.42 -0.002319    1.39    162.81   
   116. D(C  12,C   9,C   8,C   6)    165.12 -0.000599   -0.30    164.82   
   117. D(C  10,C   9,C   8,H  23)    105.10  0.001731   -0.16    104.94   
   118. D(C  10,C   9,C   8,H  24)   -137.97  0.001133    0.06   -137.91   
   119. D(C  12,C   9,C   8,H  23)    -73.08  0.002273   -1.20    -74.28   
   120. D(C  10,C   9,C   8,C   6)    -16.70 -0.001140    0.74    -15.96   
   121. D(C  13,C  10,C   9,C  12)     -1.56 -0.000248    0.56     -1.00   
   122. D(C  13,C  10,C   9,C   8)   -179.78  0.000440   -0.48   -180.26   
   123. D(O   0,C  10,C   9,C  12)   -179.66  0.000677   -0.12   -179.79   
   124. D(O   0,C  10,C   9,C   8)      2.11  0.001366   -1.16      0.95   
   125. D(C  13,C  10,O   0,C   7)    164.44  0.000407   -0.28    164.16   
   126. D(C   9,C  10,O   0,C   7)    -17.36 -0.000537    0.37    -16.99   
   127. D(C  14,C  11,C   7,C   6)     64.12  0.001463    1.87     65.99   
   128. D(C  14,C  11,C   7,O   0)    -58.97 -0.003779    2.83    -56.14   
   129. D(C  15,C  11,C   7,C   6)   -116.39  0.001463    2.29   -114.10   
   130. D(C  15,C  11,C   7,O   0)    120.51 -0.003779    3.25    123.76   
   131. D(C  14,C  11,C   7,H  22)   -174.65  0.000742    1.65   -173.00   
   132. D(C  16,C  12,C   9,C  10)      0.99  0.000041   -0.20      0.79   
   133. D(C  16,C  12,C   9,C   8)    179.21 -0.000563    0.83    180.04   
   134. D(O   2,C  12,C   9,C  10)   -179.12  0.000262   -0.48   -179.60   
   135. D(O   2,C  12,C   9,C   8)     -0.89 -0.000342    0.54     -0.35   
   136. D(C  16,C  12,O   2,H  31)     -0.59 -0.000093    0.19     -0.40   
   137. D(C   9,C  12,O   2,H  31)    179.51 -0.000315    0.48    179.99   
   138. D(H  25,C  13,C  10,C   9)   -179.23  0.000325   -0.50   -179.72   
   139. D(C  17,C  13,C  10,O   0)    179.57 -0.000312   -0.09    179.49   
   140. D(C  17,C  13,C  10,C   9)      1.32  0.000369   -0.69      0.63   
   141. D(H  25,C  13,C  10,O   0)     -0.97 -0.000356    0.11     -0.86   
   142. D(H  26,C  14,C  11,C  15)   -178.96 -0.000345    0.43   -178.54   
   143. D(H  26,C  14,C  11,C   7)      0.53 -0.000352    0.84      1.37   
   144. D(C  18,C  14,C  11,C  15)      0.62  0.000021   -0.24      0.38   
   145. D(C  18,C  14,C  11,C   7)   -179.88  0.000014    0.17   -179.71   
   146. D(H  28,C  15,C  11,C  14)    179.93  0.000069    0.05    179.97   
   147. D(H  28,C  15,C  11,C   7)      0.43  0.000055   -0.36      0.07   
   148. D(C  19,C  15,C  11,C  14)     -0.29  0.000243   -0.26     -0.54   
   149. D(C  19,C  15,C  11,C   7)   -179.78  0.000229   -0.67   -180.45   
   150. D(H  29,C  16,C  12,C   9)    179.85  0.000068   -0.03    179.81   
   151. D(H  29,C  16,C  12,O   2)     -0.05 -0.000175    0.26      0.21   
   152. D(C  17,C  16,C  12,C   9)     -0.17  0.000090   -0.04     -0.21   
   153. D(C  17,C  16,C  12,O   2)    179.93 -0.000153    0.25    180.19   
   154. D(C  16,C  17,C  13,H  25)   -179.92 -0.000329    0.27   -179.65   
   155. D(C  16,C  17,C  13,C  10)     -0.47 -0.000368    0.46     -0.01   
   156. D(O   3,C  17,C  13,H  25)     -0.07 -0.000205    0.20      0.13   
   157. D(O   3,C  17,C  13,C  10)    179.38 -0.000244    0.39    179.77   
   158. D(C  16,C  17,O   3,H  32)    178.82 -0.000058    0.16    178.98   
   159. D(O   3,C  17,C  16,C  12)   -179.95 -0.000019   -0.03   -179.98   
   160. D(C  13,C  17,O   3,H  32)     -1.03 -0.000178    0.22     -0.81   
   161. D(C  13,C  17,C  16,H  29)    179.89  0.000113   -0.10    179.79   
   162. D(C  13,C  17,C  16,C  12)     -0.09  0.000091   -0.10     -0.19   
   163. D(O   3,C  17,C  16,H  29)      0.03  0.000002   -0.04     -0.00   
   164. D(C  20,C  18,C  14,H  26)    179.06  0.000106   -0.18    178.88   
   165. D(C  20,C  18,C  14,C  11)     -0.53 -0.000248    0.50     -0.03   
   166. D(O   4,C  18,C  14,H  26)     -0.94 -0.000002    0.00     -0.94   
   167. D(O   4,C  18,C  14,C  11)    179.48 -0.000356    0.67    180.15   
   168. D(C  20,C  18,O   4,H  33)    179.45 -0.000211    0.35    179.79   
   169. D(C  14,C  18,O   4,H  33)     -0.56 -0.000104    0.17     -0.39   
   170. D(H  30,C  19,C  15,H  28)     -0.24  0.000048   -0.11     -0.35   
   171. D(H  30,C  19,C  15,C  11)    179.97 -0.000130    0.19    180.16   
   172. D(C  20,C  19,C  15,H  28)    179.64 -0.000158    0.21    179.85   
   173. D(C  20,C  19,C  15,C  11)     -0.15 -0.000336    0.51      0.36   
   174. D(C  18,C  20,C  19,H  30)   -179.86 -0.000072    0.06   -179.80   
   175. D(C  18,C  20,C  19,C  15)      0.26  0.000147   -0.26     -0.00   
   176. D(O   5,C  20,C  19,H  30)     -0.01  0.000013   -0.02     -0.03   
   177. D(O   5,C  20,C  19,C  15)   -179.88  0.000231   -0.35   -180.23   
   178. D(C  19,C  20,C  18,C  14)      0.08  0.000161   -0.24     -0.16   
   179. D(C  19,C  20,C  18,O   4)   -179.92  0.000267   -0.41   -180.34   
   180. D(O   5,C  20,C  18,C  14)   -179.78  0.000111   -0.16   -179.94   
   181. D(O   5,C  20,C  18,O   4)      0.22  0.000217   -0.33     -0.11   
   182. D(C  19,C  20,O   5,H  34)      0.30 -0.000062    0.08      0.38   
   183. D(C  18,C  20,O   5,H  34)   -179.85  0.000017   -0.01   -179.85   
    ----------------------------------------------------------------------------

Geometry step timings:
Preparation and reading OPT file:      0.003 s ( 2.330 %)
Internal coordinates            :      0.003 s ( 2.264 %)
B/P matrices and projection     :      0.007 s ( 5.677 %)
Hessian update/contruction      :      0.015 s (11.946 %)
Making the step                 :      0.008 s ( 6.412 %)
Converting the step to Cartesian:      0.004 s ( 3.310 %)
Storing new data                :      0.003 s ( 2.540 %)
Checking convergence            :      0.004 s ( 3.597 %)
Final printing                  :      0.077 s (61.921 %)
Total time                      :      0.124 s

Time for energy+gradient        :    276.161 s
Time for complete geometry iter :    276.561 s

         *************************************************************
         *                GEOMETRY OPTIMIZATION CYCLE   2            *
         *************************************************************
---------------------------------
CARTESIAN COORDINATES (ANGSTROEM)
---------------------------------
  O      0.423031    0.648862   -0.265372
  O     -0.689560   -2.840661   -0.027056
  O      4.398897   -1.956932    0.368901
  O      4.673849    2.786107   -0.054742
  O     -4.173918    1.170177    2.044533
  O     -5.848470    0.786476   -0.031617
  C      0.102557   -1.704086    0.313100
  C     -0.330946   -0.538740   -0.583397
  C      1.594494   -1.993853    0.102689
  C      2.405738   -0.721779    0.060603
  C      1.780595    0.515341   -0.128902
  C     -1.800480   -0.184644   -0.446398
  C      3.801747   -0.738474    0.192688
  C      2.517178    1.705986   -0.165288
  C     -2.306463    0.336623    0.753519
  C     -2.675913   -0.371224   -1.518632
  C      4.556270    0.436431    0.155189
  C      3.902969    1.656942   -0.022691
  C     -3.658734    0.657666    0.884426
  C     -4.031711   -0.054966   -1.392945
  C     -4.529143    0.459666   -0.194392
  H     -0.076262   -1.433297    1.364460
  H     -0.128997   -0.806713   -1.629674
  H      1.719806   -2.549512   -0.837186
  H      1.951880   -2.656720    0.902645
  H      1.994742    2.648159   -0.310101
  H     -1.630536    0.509269    1.588347
  H     -0.474890   -3.535667    0.612700
  H     -2.308344   -0.773161   -2.459055
  H      5.638207    0.422683    0.260717
  H     -4.695408   -0.211053   -2.240650
  H      5.355825   -1.822136    0.444781
  H      4.096251    3.551629   -0.199041
  H     -3.457552    1.245442    2.692234
  H     -6.317210    0.592161   -0.856795

----------------------------
CARTESIAN COORDINATES (A.U.)
----------------------------
  NO LB      ZA    FRAG     MASS         X           Y           Z
   0 O     8.0000    0    15.999    0.799413    1.226171   -0.501481
   1 O     8.0000    0    15.999   -1.303080   -5.368072   -0.051128
   2 O     8.0000    0    15.999    8.312712   -3.698066    0.697123
   3 O     8.0000    0    15.999    8.832294    5.264978   -0.103447
   4 O     8.0000    0    15.999   -7.887561    2.211314    3.863607
   5 O     8.0000    0    15.999  -11.052007    1.486224   -0.059747
   6 C     6.0000    0    12.011    0.193804   -3.220255    0.591674
   7 C     6.0000    0    12.011   -0.625398   -1.018071   -1.102460
   8 C     6.0000    0    12.011    3.013157   -3.767837    0.194055
   9 C     6.0000    0    12.011    4.546185   -1.363964    0.114522
  10 C     6.0000    0    12.011    3.364838    0.973854   -0.243590
  11 C     6.0000    0    12.011   -3.402414   -0.348928   -0.843569
  12 C     6.0000    0    12.011    7.184261   -1.395513    0.364128
  13 C     6.0000    0    12.011    4.756778    3.223847   -0.312349
  14 C     6.0000    0    12.011   -4.358583    0.636124    1.423945
  15 C     6.0000    0    12.011   -5.056743   -0.701511   -2.869799
  16 C     6.0000    0    12.011    8.610102    0.824735    0.293265
  17 C     6.0000    0    12.011    7.375543    3.131167   -0.042880
  18 C     6.0000    0    12.011   -6.914005    1.242809    1.671323
  19 C     6.0000    0    12.011   -7.618829   -0.103871   -2.632285
  20 C     6.0000    0    12.011   -8.558839    0.868642   -0.367348
  21 H     1.0000    0     1.008   -0.144114   -2.708540    2.578457
  22 H     1.0000    0     1.008   -0.243769   -1.524467   -3.079638
  23 H     1.0000    0     1.008    3.249963   -4.817880   -1.582052
  24 H     1.0000    0     1.008    3.688518   -5.020473    1.705752
  25 H     1.0000    0     1.008    3.769516    5.004296   -0.586006
  26 H     1.0000    0     1.008   -3.081266    0.962378    3.001541
  27 H     1.0000    0     1.008   -0.897413   -6.681442    1.157835
  28 H     1.0000    0     1.008   -4.362138   -1.461063   -4.646940
  29 H     1.0000    0     1.008   10.654666    0.798755    0.492684
  30 H     1.0000    0     1.008   -8.873034   -0.398832   -4.234215
  31 H     1.0000    0     1.008   10.121043   -3.443338    0.840515
  32 H     1.0000    0     1.008    7.740792    6.711607   -0.376133
  33 H     1.0000    0     1.008   -6.533826    2.353543    5.087585
  34 H     1.0000    0     1.008  -11.937796    1.119022   -1.619108

--------------------------------
INTERNAL COORDINATES (ANGSTROEM)
--------------------------------
 O      0   0   0     0.000000000000     0.00000000     0.00000000
 O      1   0   0     3.670344042842     0.00000000     0.00000000
 O      1   2   0     4.795829495990    74.10575784     0.00000000
 O      1   2   3     4.762523556441   133.97490890   359.70613299
 O      1   2   3     5.171012253165    78.30896929   213.18833689
 O      5   1   2     2.694763894963   101.18116067   284.12397964
 C      2   1   3     1.426519954669    24.44845102    39.24402108
 C      1   2   3     1.442227187455    22.02247793   138.24417226
 C      7   2   1     1.534312344553   110.90198451   238.73361708
 C      9   7   2     1.509324861495   111.54892447   163.30572671
 C      1   2   3     1.370924100098   101.60222638     0.23534205
 C      8   1   2     1.517788361671   107.10679910   122.99109199
 C      3   1   2     1.368313240148    30.38230734   180.04679066
 C     11   1   2     1.400540683562   115.81189175   180.56135356
 C     12   8   1     1.402689748000   120.87500991   303.85657164
 C     12   8   1     1.396740092155   120.42342641   123.75925874
 C     13   3   1     1.396821590555   121.11303627   179.73783861
 C      4   1   2     1.367587346086    29.23728075     0.34134614
 C      5   1   2     1.368915495584    41.33392716   301.61113910
 C     16  12   8     1.397856358518   120.57489527   179.55012882
 C      6   5   1     1.368914398449    61.75157007    12.95411573
 H      7   2   1     1.100300177502   109.49261722   117.65561871
 H      8   1   2     1.098767069153   108.34371859   240.09885242
 H      9   7   2     1.099011191577   108.88319913    41.80268374
 H      9   7   2     1.098656402807   109.29326806   286.08802547
 H     14  11   1     1.087014390528   119.17946238   359.13669892
 H     15  12   8     1.087943955115   119.42450165     1.37208158
 H      2   1   3     0.968712045490   131.13338979    48.42169726
 H     16  12   8     1.086763933487   120.11343547     0.06679292
 H     17  13   3     1.087158192244   121.62344630     0.21340413
 H     20  16  12     1.087869470368   119.28844942   180.15963962
 H      3   1   2     0.969349582942   138.86816401   179.85064289
 H      4   1   2     0.969776824801    79.40059824   179.40902601
 H      5   1   2     0.968690415796    69.45718214   101.54478616
 H      6   5   1     0.968707285957   170.24336681    13.45564056

---------------------------
INTERNAL COORDINATES (A.U.)
---------------------------
 O      0   0   0     0.000000000000     0.00000000     0.00000000
 O      1   0   0     6.935945058241     0.00000000     0.00000000
 O      1   2   0     9.062804332402    74.10575784     0.00000000
 O      1   2   3     8.999865228022   133.97490890   359.70613299
 O      1   2   3     9.771796993633    78.30896929   213.18833689
 O      5   1   2     5.092365757059   101.18116067   284.12397964
 C      2   1   3     2.695732038899    24.44845102    39.24402108
 C      1   2   3     2.725414407185    22.02247793   138.24417226
 C      7   2   1     2.899430135100   110.90198451   238.73361708
 C      9   7   2     2.852210635344   111.54892447   163.30572671
 C      1   2   3     2.590671099578   101.60222638     0.23534205
 C      8   1   2     2.868204332811   107.10679910   122.99109199
 C      3   1   2     2.585737289299    30.38230734   180.04679066
 C     11   1   2     2.646638331347   115.81189175   180.56135356
 C     12   8   1     2.650699474579   120.87500991   303.85657164
 C     12   8   1     2.639456254440   120.42342641   123.75925874
 C     13   3   1     2.639610264097   121.11303627   179.73783861
 C      4   1   2     2.584365548318    29.23728075     0.34134614
 C      5   1   2     2.586875387134    41.33392716   301.61113910
 C     16  12   8     2.641565692159   120.57489527   179.55012882
 C      6   5   1     2.586873313851    61.75157007    12.95411573
 H      7   2   1     2.079266000583   109.49261722   117.65561871
 H      8   1   2     2.076368845670   108.34371859   240.09885242
 H      9   7   2     2.076830170195   108.88319913    41.80268374
 H      9   7   2     2.076159716584   109.29326806   286.08802547
 H     14  11   1     2.054159501729   119.17946238   359.13669892
 H     15  12   8     2.055916124222   119.42450165     1.37208158
 H      2   1   3     1.830600468608   131.13338979    48.42169726
 H     16  12   8     2.053686206514   120.11343547     0.06679292
 H     17  13   3     2.054431247591   121.62344630     0.21340413
 H     20  16  12     2.055775368449   119.28844942   180.15963962
 H      3   1   2     1.831805239792   138.86816401   179.85064289
 H      4   1   2     1.832612609897    79.40059824   179.40902601
 H      5   1   2     1.830559594409    69.45718214   101.54478616
 H      6   5   1     1.830591474392   170.24336681    13.45564056

------------------------------------------------------------------------------
                   ___                                                        
                  /   \      - P O W E R E D   B Y -                         
                 /     \                                                     
                 |  |  |   _    _      __       _____    __    __             
                 |  |  |  | |  | |    /  \     |  _  \  |  |  /  |          
                  \  \/   | |  | |   /    \    | | | |  |  | /  /          
                 / \  \   | |__| |  /  /\  \   | |_| |  |  |/  /          
                |  |  |   |  __  | /  /__\  \  |    /   |      \           
                |  |  |   | |  | | |   __   |  |    \   |  |\   \          
                \     /   | |  | | |  |  |  |  | |\  \  |  | \   \       
                 \___/    |_|  |_| |__|  |__|  |_| \__\ |__|  \__/        
                                                                              
                      - O R C A' S   B I G   F R I E N D -                    
                                      &                                       
                       - I N T E G R A L  F E E D E R -                       
                                                                              
 v1 FN, 2020, v2 2021, v3 2022-2024                                           
------------------------------------------------------------------------------


----------------------
SHARK INTEGRAL PACKAGE
----------------------

Number of atoms                             ...     35
Number of basis functions                   ...    322
Number of shells                            ...    154
Maximum angular momentum                    ...      2
Integral batch strategy                     ... SHARK/LIBINT Hybrid
RI-J (if used) integral strategy            ... SPLIT-RIJ (Revised 2003 algorithm where possible)
Printlevel                                  ...      1
Contraction scheme used                     ... SEGMENTED contraction
Prescreening option                         ... SCHWARTZ
   Thresh                                   ... 2.500e-11
   Tcut                                     ... 2.500e-12
   Tpresel                                  ... 2.500e-12 
Coulomb Range Separation                    ... NOT USED
Exchange Range Separation                   ... NOT USED
Multipole approximations                    ... NOT USED
Finite Nucleus Model                        ... NOT USED
CABS basis                                  ... NOT available
Auxiliary Coulomb fitting basis             ... AVAILABLE
   # of basis functions in Aux-J            ...   1183
   # of shells in Aux-J                     ...    385
   Maximum angular momentum in Aux-J        ...      4
Auxiliary J/K fitting basis                 ... NOT available
Auxiliary Correlation fitting basis         ... NOT available
Auxiliary 'external' fitting basis          ... NOT available

Checking pre-screening integrals            ... done (  0.0 sec) Dimension = 154
   => SHARK Basis and OBASIS are compatible. Storing Pre-screening
Shell pair information
Shell pair cut-off parameter TPreSel        ...   2.5e-12
Total number of shell pairs                 ...     11935
Shell pairs after pre-screening             ...      8444
Total number of primitive shell pairs       ...     69489
Primitive shell pairs kept                  ...     27534
          la=0 lb=0:   2817 shell pairs
          la=1 lb=0:   2888 shell pairs
          la=1 lb=1:    743 shell pairs
          la=2 lb=0:   1204 shell pairs
          la=2 lb=1:    650 shell pairs
          la=2 lb=2:    142 shell pairs

Checking whether 4 symmetric matrices of dimension 322 fit in memory
:Max Core in MB      =   4096.00
 MB in use           =     15.92
 MB left             =   4080.08
 MB needed           =      1.59
 Data fit in memory  = YES
Calculating RI/J V-Matrix + Cholesky decomp.... done (  0.3 sec)
Calculating Nuclear repulsion               ... done (  0.0 sec) ENN=   1636.483222219527 Eh

Diagonalization of the overlap matrix:
Smallest eigenvalue                        ... 3.962e-04
Time for diagonalization                   ...    0.010 sec
Threshold for overlap eigenvalues          ... 1.000e-07
Number of eigenvalues below threshold      ... 0
Time for construction of square roots      ...    0.022 sec
Total time needed                          ...    0.053 sec

-------------------
DFT GRID GENERATION
-------------------

General Integration Accuracy     IntAcc      ... 4.388
Radial Grid Type                 RadialGrid  ... OptM3 with GC (2021)
Angular Grid (max. ang.)         AngularGrid ... 4 (Lebedev-302)
Angular grid pruning method      GridPruning ... 4 (adaptive)
Weight generation scheme         WeightScheme... mBecke (2022)
Basis function cutoff            BFCut       ... 1.0000e-11
Integration weight cutoff        WCut        ... 1.0000e-14
Partially contracted basis set               ... off
Rotationally invariant grid construction     ... off
Angular grids for H and He will be reduced by one unit

Total number of grid points                  ...   170379
Total number of batches                      ...     2677
Average number of points per batch           ...       63
Average number of grid points per atom       ...     4868

--------------------
COSX GRID GENERATION
--------------------

GRIDX 1
-------
General Integration Accuracy     IntAcc      ... 3.816
Radial Grid Type                 RadialGrid  ... OptM3 with GC (2021)
Angular Grid (max. ang.)         AngularGrid ... 1 (Lebedev-50)
Angular grid pruning method      GridPruning ... 4 (adaptive)
Weight generation scheme         WeightScheme... mBecke (2022)
Basis function cutoff            BFCut       ... 1.0000e-11
Integration weight cutoff        WCut        ... 1.0000e-14
Partially contracted basis set               ... on
Rotationally invariant grid construction     ... off
Angular grids for H and He will be reduced by one unit

Total number of grid points                  ...    21665
Total number of batches                      ...      189
Average number of points per batch           ...      114
Average number of grid points per atom       ...      619
UseSFitting                                  ... on

GRIDX 2
-------
General Integration Accuracy     IntAcc      ... 4.020
Radial Grid Type                 RadialGrid  ... OptM3 with GC (2021)
Angular Grid (max. ang.)         AngularGrid ... 2 (Lebedev-110)
Angular grid pruning method      GridPruning ... 4 (adaptive)
Weight generation scheme         WeightScheme... mBecke (2022)
Basis function cutoff            BFCut       ... 1.0000e-11
Integration weight cutoff        WCut        ... 1.0000e-14
Partially contracted basis set               ... on
Rotationally invariant grid construction     ... off
Angular grids for H and He will be reduced by one unit

Total number of grid points                  ...    47456
Total number of batches                      ...      390
Average number of points per batch           ...      121
Average number of grid points per atom       ...     1356
UseSFitting                                  ... on

GRIDX 3
-------
General Integration Accuracy     IntAcc      ... 4.338
Radial Grid Type                 RadialGrid  ... OptM3 with GC (2021)
Angular Grid (max. ang.)         AngularGrid ... 3 (Lebedev-194)
Angular grid pruning method      GridPruning ... 4 (adaptive)
Weight generation scheme         WeightScheme... mBecke (2022)
Basis function cutoff            BFCut       ... 1.0000e-11
Integration weight cutoff        WCut        ... 1.0000e-14
Partially contracted basis set               ... on
Rotationally invariant grid construction     ... off
Angular grids for H and He will be reduced by one unit

Total number of grid points                  ...   104045
Total number of batches                      ...      831
Average number of points per batch           ...      125
Average number of grid points per atom       ...     2973
UseSFitting                                  ... on
Grids setup in   5.8 sec
Initializing property integral containers    ... done (  0.0 sec)

SHARK setup successfully completed in   6.8 seconds

Maximum memory used throughout the entire STARTUP-calculation: 72.9 MB
Occupation numbers will be reassigned to an Aufbau configuration
             **** ENERGY FILE WAS UPDATED (Catechin.en.tmp) ****
Finished Guess after   0.6 sec
Maximum memory used throughout the entire GUESS-calculation: 26.1 MB
----------------------------------------D-I-I-S--------------------------------------------
Iteration    Energy (Eh)           Delta-E    RMSDP     MaxDP     DIISErr   Damp  Time(sec)
-------------------------------------------------------------------------------------------
               ***  Starting incremental Fock matrix formation  ***
    1    -1030.7330694539937213     0.00e+00  1.81e-04  3.91e-03  2.04e-02  0.700  19.1
    2    -1030.7348291351931948    -1.76e-03  1.65e-04  3.39e-03  1.63e-02  0.700  10.1
                               ***Turning on AO-DIIS***
    3    -1030.7362233721546545    -1.39e-03  1.35e-04  2.79e-03  1.23e-02  0.700  10.0
    4    -1030.7372533190387003    -1.03e-03  3.41e-04  6.95e-03  8.95e-03  0.000  10.1
                              *** Initializing SOSCF ***
---------------------------------------S-O-S-C-F--------------------------------------
Iteration    Energy (Eh)           Delta-E    RMSDP     MaxDP     MaxGrad    Time(sec)
--------------------------------------------------------------------------------------
    5    -1030.7398389908312311    -2.59e-03  1.94e-05  5.01e-04  4.62e-04    10.7
               *** Restarting incremental Fock matrix formation ***
    6    -1030.7398408174522046    -1.83e-06  1.37e-05  4.20e-04  8.66e-05    19.8
    7    -1030.7398417273720952    -9.10e-07  8.87e-06  2.85e-04  1.15e-04    12.3
    8    -1030.7398417861195412    -5.87e-08  5.40e-06  1.55e-04  1.18e-04    12.7
    9    -1030.7398420057179464    -2.20e-07  2.23e-06  6.15e-05  2.19e-05    11.6
   10    -1030.7398420177114531    -1.20e-08  1.33e-06  3.67e-05  1.28e-05    10.2
   11    -1030.7398420266399626    -8.93e-09  4.07e-07  1.25e-05  2.58e-06    10.0
                 **** Energy Check signals convergence ****

               *****************************************************
               *                     SUCCESS                       *
               *           SCF CONVERGED AFTER  11 CYCLES          *
               *****************************************************

Recomputing exchange energy using gridx3       ... done (   29.147 sec)
Old exchange energy                            :    -26.464239064 Eh
New exchange energy                            :    -26.464272007 Eh
Exchange energy change after final integration :     -0.000032942 Eh
Total energy after final integration           :  -1030.739874963 Eh
             **** ENERGY FILE WAS UPDATED (Catechin.en.tmp) ****

----------------
TOTAL SCF ENERGY
----------------

Total Energy       :      -1030.73987496325230 Eh          -28047.85792 eV

Components:
Nuclear Repulsion  :       1636.48322221952731 Eh           44530.97239 eV
Electronic Energy  :      -2667.22306424039016 Eh          -72578.82941 eV
One Electron Energy:      -4659.92598217964587 Eh         -126803.03252 eV
Two Electron Energy:       1992.70291793925549 Eh           54224.20310 eV

Virial components:
Potential Energy   :      -2055.64695291680528 Eh          -55936.99737 eV
Kinetic Energy     :       1024.90707795355274 Eh           27889.13945 eV
Virial Ratio       :          2.00569104959383

DFT components:
N(Alpha)           :       75.999996845270 electrons
N(Beta)            :       75.999996845270 electrons
N(Total)           :      151.999993690541 electrons
E(X)               :     -105.197742900566 Eh       
E(C)               :       -6.207395825341 Eh       
E(XC)              :     -111.405138725907 Eh       

---------------
SCF CONVERGENCE
---------------

  Last Energy change         ...    8.9285e-09  Tolerance :   1.0000e-08
  Last MAX-Density change    ...    1.2467e-05  Tolerance :   1.0000e-07
  Last RMS-Density change    ...    4.0674e-07  Tolerance :   5.0000e-09
  Last DIIS Error            ...    4.6195e-04  Tolerance :   5.0000e-07
  Last Orbital Gradient      ...    2.5843e-06  Tolerance :   1.0000e-05
  Last Orbital Rotation      ...    9.6400e-06  Tolerance :   1.0000e-05


Total SCF time: 0 days 0 hours 2 min 56 sec 
Finished LeanSCF after 176.7 sec

Maximum memory used throughout the entire LEANSCF-calculation: 50.2 MB

------------------------------------------------------------------------------
                         ORCA PROPERTY INTEGRAL CALCULATIONS
------------------------------------------------------------------------------

GBWName                                   ... Catechin.gbw
Number of atoms                           ...     35
Number of basis functions                 ...    322
Max core memory                           ...   4096 MB

Dipole integrals                          ... YES
Quadrupole integrals                      ...  NO
Linear momentum integrals                 ...  NO
Angular momentum integrals                ...  NO
Higher moments length integrals           ...  NO
Higher moments velocity integrals         ...  NO
Kinetic energy integrals                  ...  NO
GIAO right hand sides                     ...  NO
GIAO dipole derivative integrals          ...  NO
SOC integrals                             ...  NO
EPR diamagnetic integrals (GIAO)          ...  NO
EPR gauge integrals                       ...  NO
Field gradient integrals                  ...  NO (   0 nuclei)
Spin-dipole/Fermi contact integrals       ...  NO (   0 nuclei)
Contact density integrals                 ...  NO (   0 nuclei)
Nucleus-orbit integrals                   ...  NO (   0 nuclei)
Geometric perturbations                   ...  NO (  35 nuclei)

Choice of electric origin   ... Center of mass
Position of electric origin ... ( -0.0119, -0.0119,  0.0519) 
Choice of magnetic origin   ... GIAO
Position of magnetic origin ... (  0.0000,  0.0000,  0.0000) 

Calculating integrals                     ... Electric Dipole (Length)     done (  0.1 sec)

Property integrals calculated in   0.1 sec

Maximum memory used throughout the entire PROPINT-calculation: 25.8 MB

-------------------------   --------------------
FINAL SINGLE POINT ENERGY     -1030.739874963252
-------------------------   --------------------

------------------------------------------------------------------------------
                         ORCA SCF GRADIENT CALCULATION
------------------------------------------------------------------------------

Nuc. rep. gradient        (SHARK) ... done (  0.0 sec)
HCore & Overlap gradient  (SHARK) ... done (  1.0 sec)
Split-RIJ-J gradient      (SHARK) ... done (  5.0 sec)
COSX-gradient                     ... done ( 67.1 sec)
XC gradient                       ... done ( 14.9 sec)

------------------
CARTESIAN GRADIENT
------------------

   1   O   :   -0.003116030    0.003081342   -0.002380682
   2   O   :    0.000863213   -0.004289800    0.001777551
   3   O   :    0.002254716    0.001832844    0.000343668
   4   O   :   -0.001342629    0.000607621   -0.000093373
   5   O   :    0.004508240   -0.000109963    0.002127935
   6   O   :   -0.001422978   -0.001301037   -0.004678870
   7   C   :   -0.004432444    0.006382863    0.000435422
   8   C   :    0.009987841   -0.002202451    0.000156947
   9   C   :   -0.000630791    0.000188143   -0.001459613
  10   C   :    0.003252580    0.004206516   -0.000400739
  11   C   :   -0.002285333   -0.003254796   -0.000398885
  12   C   :   -0.001302376    0.000237155    0.002831441
  13   C   :   -0.003680905   -0.006169039   -0.000269789
  14   C   :    0.000969781   -0.001367690    0.000265122
  15   C   :    0.001353092    0.001237322    0.005102890
  16   C   :   -0.000509779    0.000533759   -0.000764487
  17   C   :   -0.001556294    0.001967317   -0.000297739
  18   C   :    0.003130421   -0.001968496    0.000160942
  19   C   :   -0.009268318   -0.001436748   -0.009380142
  20   C   :   -0.006208703    0.000505000   -0.002657575
  21   C   :    0.008842417    0.001706869    0.010090704
  22   H   :   -0.000297259   -0.003577383    0.000140373
  23   H   :   -0.000893175    0.001536829   -0.000238662
  24   H   :    0.002330888    0.001202042   -0.000167021
  25   H   :   -0.001299723   -0.000356813    0.000654534
  26   H   :    0.000284474    0.000365799    0.000181870
  27   H   :    0.000545346   -0.000679317   -0.000802061
  28   H   :   -0.000235750    0.001199746    0.000209681
  29   H   :   -0.000454713   -0.000100635   -0.000301445
  30   H   :    0.000144711    0.000271186    0.000064392
  31   H   :    0.001862734   -0.000663373   -0.000789639
  32   H   :   -0.000436195    0.000132887   -0.000236520
  33   H   :    0.000140684   -0.000093150   -0.000093422
  34   H   :   -0.000975093    0.000046348   -0.000023455
  35   H   :   -0.000122654    0.000329104    0.000890649

Difference to translation invariance:
           :   -0.0000000001    0.0000000000    0.0000000001

Difference to rotation invariance:
           :   -0.0000340167    0.0000289393    0.0000508534

Norm of the Cartesian gradient     ...    0.0295945210
RMS gradient                       ...    0.0028881295
MAX gradient                       ...    0.0100907041

-------
TIMINGS
-------

Total SCF gradient time     ....       87.990 sec

Densities                   ....       0.002 sec  (  0.0%)
One electron gradient       ....       1.015 sec  (  1.2%)
RI-J Coulomb gradient       ....       4.992 sec  (  5.7%)
COSX gradient               ....      67.072 sec  ( 76.2%)
XC gradient                 ....      14.905 sec  ( 16.9%)

Maximum memory used throughout the entire SCFGRAD-calculation: 56.7 MB
------------------------------------------------------------------------------
                         ORCA GEOMETRY RELAXATION STEP
------------------------------------------------------------------------------

Reading the OPT-File                    .... done
Getting information on internals        .... done
Copying old internal coords+grads       .... done
Making the new internal coordinates     .... (2022 redundants) done
Validating the new internal coordinates .... (2022 redundants) done
Calculating the B-matrix                .... done
Calculating the G,G- and P matrices     .... done
Transforming gradient to internals      .... done
Projecting the internal gradient        .... done
Number of atoms                         ....  35
Number of internal coordinates          .... 183
Current Energy                          .... -1030.739874963 Eh
Current gradient norm                   ....     0.029594521 Eh/bohr
Maximum allowed component of the step   ....  0.300
Current trust radius                    ....  0.300
Updating the Hessian (BFGS)             .... done
Forming the augmented Hessian           .... done
Diagonalizing the augmented Hessian     .... done
Last element of RFO vector              ....  0.979071242
Lowest eigenvalues of augmented Hessian:
 -0.001994634  0.011000312  0.015035868  0.018172030  0.019434246
Length of the computed step             ....  0.207868242
The final length of the internal step   ....  0.207868242
Converting the step to Cartesian space:
 Initial RMS(Int)=    0.0153660626
Transforming coordinates:
 Iter   0:  RMS(Cart)=    0.0859347838 RMS(Int)=    1.1370831669
 Iter   5:  RMS(Cart)=    0.0000000454 RMS(Int)=    0.0000000205
done
Storing new coordinates                 .... done
The predicted energy change is          ....    -0.001040410
Previously predicted energy change      ....    -0.004061161
Actually observed energy change         ....    -0.005276352
Ratio of predicted to observed change   ....     1.299222386
New trust radius                        ....     0.300000000

                                .--------------------.
          ----------------------|Geometry convergence|-------------------------
          Item                value                   Tolerance       Converged
          ---------------------------------------------------------------------
          Energy change      -0.0052763518            0.0000050000      NO
          RMS gradient        0.0013911539            0.0001000000      NO
          MAX gradient        0.0056975889            0.0003000000      NO
          RMS step            0.0153660626            0.0020000000      NO
          MAX step            0.0882703875            0.0040000000      NO
          -------------------------------------------------------------------------
          ........................................................
          Max(Bonds)      0.0071      Max(Angles)    1.61
          Max(Dihed)        5.06      Max(Improp)    0.00
          ---------------------------------------------------------------------

The optimization has not yet converged - more geometry cycles are needed


    ---------------------------------------------------------------------------
                         Redundant Internal Coordinates
                            (Angstroem and degrees)

        Definition                    Value    dE/dq     Step     New-Value
    ----------------------------------------------------------------------------
     1. B(C   6,O   1)                1.4265  0.001640 -0.0031    1.4235   
     2. B(C   7,O   0)                1.4422 -0.000799  0.0017    1.4439   
     3. B(C   7,C   6)                1.5329 -0.000078  0.0000    1.5329   
     4. B(C   8,C   6)                1.5343  0.000506 -0.0004    1.5339   
     5. B(C   9,C   8)                1.5093 -0.001249  0.0030    1.5123   
     6. B(C  10,C   9)                1.3990 -0.000764  0.0008    1.3998   
     7. B(C  10,O   0)                1.3709  0.001241 -0.0014    1.3695   
     8. B(C  11,C   7)                1.5178  0.003272 -0.0071    1.5107   
     9. B(C  12,C   9)                1.4023 -0.001178  0.0016    1.4040   
    10. B(C  12,O   2)                1.3683 -0.000943  0.0013    1.3696   
    11. B(C  13,C  10)                1.4005 -0.000122  0.0004    1.4010   
    12. B(C  14,C  11)                1.4027  0.000781 -0.0014    1.4013   
    13. B(C  15,C  11)                1.3967  0.002254 -0.0038    1.3930   
    14. B(C  16,C  12)                1.3968  0.000867 -0.0008    1.3960   
    15. B(C  17,O   3)                1.3676 -0.000249  0.0006    1.3682   
    16. B(C  17,C  16)                1.3957 -0.002417  0.0036    1.3993   
    17. B(C  17,C  13)                1.3940 -0.000166  0.0005    1.3945   
    18. B(C  18,C  14)                1.3960  0.001892 -0.0023    1.3937   
    19. B(C  18,O   4)                1.3689  0.000430 -0.0004    1.3685   
    20. B(C  19,C  15)                1.3979  0.000183 -0.0003    1.3976   
    21. B(C  20,C  19)                1.3960  0.000766 -0.0006    1.3954   
    22. B(C  20,C  18)                1.4002 -0.005006  0.0070    1.4072   
    23. B(C  20,O   5)                1.3689  0.000807 -0.0009    1.3680   
    24. B(H  21,C   6)                1.1003 -0.000698  0.0018    1.1021   
    25. B(H  22,C   7)                1.0988 -0.000312  0.0007    1.0994   
    26. B(H  23,C   8)                1.0990 -0.000199  0.0005    1.0995   
    27. B(H  24,C   8)                1.0987  0.000269 -0.0005    1.0982   
    28. B(H  25,C  13)                1.0870  0.000156 -0.0002    1.0868   
    29. B(H  26,C  14)                1.0879 -0.000384  0.0010    1.0889   
    30. B(H  27,O   1)                0.9687 -0.000775  0.0009    0.9696   
    31. B(H  28,C  15)                1.0868  0.000144 -0.0004    1.0864   
    32. B(H  29,C  16)                1.0872  0.000147 -0.0002    1.0870   
    33. B(H  30,C  19)                1.0879 -0.000426  0.0011    1.0890   
    34. B(H  31,O   2)                0.9693 -0.000431  0.0005    0.9698   
    35. B(H  32,O   3)                0.9698 -0.000144  0.0000    0.9698   
    36. B(H  33,O   4)                0.9687 -0.000733  0.0011    0.9698   
    37. B(H  34,O   5)                0.9687 -0.000765  0.0012    0.9699   
    38. A(C   7,O   0,C  10)          117.35 -0.003155    0.83    118.18   
    39. A(C   6,O   1,H  27)          106.92 -0.001242    0.26    107.19   
    40. A(C  12,O   2,H  31)          108.49 -0.000391    0.08    108.57   
    41. A(C  17,O   3,H  32)          108.63  0.000098   -0.02    108.61   
    42. A(C  18,O   4,H  33)          108.51  0.001153   -0.30    108.21   
    43. A(C  20,O   5,H  34)          108.49  0.001053   -0.27    108.22   
    44. A(O   1,C   6,C   8)          110.90 -0.001825    0.88    111.78   
    45. A(C   8,C   6,H  21)          109.61  0.000815    0.13    109.74   
    46. A(C   7,C   6,C   8)          109.78 -0.002153    0.40    110.18   
    47. A(O   1,C   6,C   7)          108.01  0.003964   -1.61    106.40   
    48. A(C   7,C   6,H  21)          109.01  0.001508   -0.90    108.11   
    49. A(O   1,C   6,H  21)          109.49 -0.002229    1.10    110.59   
    50. A(C   6,C   7,C  11)          113.48 -0.002473    0.76    114.23   
    51. A(C  11,C   7,H  22)          108.71 -0.000445    0.38    109.10   
    52. A(C   6,C   7,H  22)          108.63  0.001477   -0.71    107.93   
    53. A(O   0,C   7,C  11)          107.11 -0.000198    0.17    107.28   
    54. A(O   0,C   7,H  22)          108.34 -0.000987    0.37    108.71   
    55. A(O   0,C   7,C   6)          110.44  0.002588   -0.93    109.51   
    56. A(C   6,C   8,C   9)          111.55  0.001529   -0.38    111.17   
    57. A(C   9,C   8,H  24)          110.73  0.001058   -0.26    110.47   
    58. A(C   6,C   8,H  24)          109.29 -0.001997    0.66    109.96   
    59. A(C   9,C   8,H  23)          109.94 -0.002383    0.90    110.84   
    60. A(C   6,C   8,H  23)          108.88  0.001518   -0.80    108.08   
    61. A(H  23,C   8,H  24)          106.29  0.000215   -0.14    106.16   
    62. A(C   8,C   9,C  10)          120.59 -0.001042    0.17    120.76   
    63. A(C  10,C   9,C  12)          117.91  0.002372   -0.51    117.40   
    64. A(C   8,C   9,C  12)          121.49 -0.001333    0.36    121.86   
    65. A(C   9,C  10,C  13)          121.35 -0.002273    0.50    121.85   
    66. A(O   0,C  10,C  13)          115.81  0.000313   -0.00    115.81   
    67. A(O   0,C  10,C   9)          122.83  0.001955   -0.50    122.33   
    68. A(C  14,C  11,C  15)          118.70 -0.000407    0.04    118.74   
    69. A(C   7,C  11,C  15)          120.42 -0.001121    0.29    120.71   
    70. A(C   7,C  11,C  14)          120.88  0.001528   -0.32    120.55   
    71. A(O   2,C  12,C   9)          117.20  0.004224   -0.94    116.27   
    72. A(C   9,C  12,C  16)          121.68 -0.001580    0.34    122.02   
    73. A(O   2,C  12,C  16)          121.11 -0.002644    0.60    121.71   
    74. A(C  17,C  13,H  25)          121.46 -0.000968    0.23    121.69   
    75. A(C  10,C  13,H  25)          119.18 -0.000077    0.00    119.18   
    76. A(C  10,C  13,C  17)          119.36  0.001045   -0.23    119.13   
    77. A(C  11,C  14,C  18)          121.00 -0.001670    0.38    121.39   
    78. A(C  11,C  14,H  26)          119.42 -0.000282    0.09    119.52   
    79. A(C  18,C  14,H  26)          119.56  0.001954   -0.48    119.08   
    80. A(C  11,C  15,C  19)          120.57  0.000796   -0.22    120.36   
    81. A(C  19,C  15,H  28)          119.31 -0.000941    0.26    119.57   
    82. A(C  11,C  15,H  28)          120.11  0.000145   -0.04    120.07   
    83. A(C  17,C  16,H  29)          119.29 -0.000527    0.12    119.41   
    84. A(C  12,C  16,H  29)          121.62  0.000021   -0.02    121.61   
    85. A(C  12,C  16,C  17)          119.09  0.000506   -0.10    118.98   
    86. A(C  13,C  17,C  16)          120.61 -0.000069    0.01    120.61   
    87. A(O   3,C  17,C  16)          117.46  0.001661   -0.35    117.11   
    88. A(O   3,C  17,C  13)          121.93 -0.001591    0.35    122.28   
    89. A(C  14,C  18,C  20)          119.83  0.001409   -0.29    119.54   
    90. A(O   4,C  18,C  20)          118.16  0.004009   -0.89    117.27   
    91. A(O   4,C  18,C  14)          122.01 -0.005418    1.18    123.20   
    92. A(C  20,C  19,H  30)          120.30  0.003094   -0.77    119.53   
    93. A(C  15,C  19,H  30)          119.29 -0.001195    0.32    119.61   
    94. A(C  15,C  19,C  20)          120.41 -0.001899    0.45    120.86   
    95. A(O   5,C  20,C  18)          118.28  0.003925   -0.88    117.40   
    96. A(C  18,C  20,C  19)          119.48  0.001773   -0.37    119.11   
    97. A(O   5,C  20,C  19)          122.24 -0.005698    1.24    123.49   
    98. D(C   8,C   6,O   1,H  27)     65.95  0.000271   -1.18     64.77   
    99. D(H  21,C   6,O   1,H  27)    -55.13  0.001898   -2.54    -57.67   
   100. D(C   7,C   6,O   1,H  27)   -173.72 -0.000958   -1.16   -174.87   
   101. D(O   0,C   7,C   6,O   1)    178.95  0.000506   -0.69    178.26   
   102. D(C  11,C   7,O   0,C  10)    170.54 -0.000535    0.47    171.01   
   103. D(H  22,C   7,O   0,C  10)    -72.35 -0.001670    1.19    -71.16   
   104. D(C  11,C   7,C   6,O   1)     58.68  0.000590   -0.77     57.91   
   105. D(O   0,C   7,C   6,C   8)    -60.01 -0.000561   -0.36    -60.37   
   106. D(C  11,C   7,C   6,H  21)    -60.21  0.000142   -0.59    -60.80   
   107. D(C  11,C   7,C   6,C   8)    179.72 -0.000477   -0.44    179.27   
   108. D(C   6,C   7,O   0,C  10)     46.51  0.001039   -0.00     46.51   
   109. D(O   0,C   7,C   6,H  21)     60.06  0.000058   -0.51     59.55   
   110. D(C   9,C   8,C   6,H  21)    -75.68 -0.001883    1.34    -74.34   
   111. D(C   9,C   8,C   6,O   1)    163.31  0.001544   -0.62    162.68   
   112. D(C   9,C   8,C   6,C   7)     44.03 -0.000853    0.56     44.59   
   113. D(H  23,C   8,C   6,O   1)     41.80  0.002525   -0.97     40.83   
   114. D(H  23,C   8,C   6,C   7)    -77.48  0.000128    0.22    -77.26   
   115. D(H  23,C   8,C   6,H  21)    162.81 -0.000902    1.00    163.81   
   116. D(C  12,C   9,C   8,C   6)    164.83 -0.000059   -0.73    164.09   
   117. D(C  10,C   9,C   8,H  23)    104.94  0.000946   -0.35    104.60   
   118. D(C  10,C   9,C   8,H  24)   -137.90  0.000390   -0.11   -138.02   
   119. D(C  12,C   9,C   8,H  23)    -74.29  0.001249   -1.37    -75.65   
   120. D(C  10,C   9,C   8,C   6)    -15.95 -0.000362    0.29    -15.65   
   121. D(C  13,C  10,C   9,C  12)     -1.00 -0.000017    0.27     -0.73   
   122. D(C  13,C  10,C   9,C   8)    179.74  0.000303   -0.74    179.00   
   123. D(O   0,C  10,C   9,C  12)   -179.78  0.000239    0.32   -179.47   
   124. D(O   0,C  10,C   9,C   8)      0.96  0.000558   -0.69      0.27   
   125. D(C  13,C  10,O   0,C   7)    164.16  0.000080    0.34    164.50   
   126. D(C   9,C  10,O   0,C   7)    -17.00 -0.000193    0.30    -16.69   
   127. D(C  14,C  11,C   7,C   6)     66.00 -0.000060    3.82     69.82   
   128. D(C  14,C  11,C   7,O   0)    -56.14 -0.001614    4.39    -51.75   
   129. D(C  15,C  11,C   7,C   6)   -114.10 -0.000159    4.48   -109.61   
   130. D(C  15,C  11,C   7,O   0)    123.76 -0.001713    5.06    128.82   
   131. D(C  14,C  11,C   7,H  22)   -173.01 -0.000118    3.68   -169.33   
   132. D(C  16,C  12,C   9,C  10)      0.79 -0.000024   -0.16      0.63   
   133. D(C  16,C  12,C   9,C   8)   -179.96 -0.000344    0.85   -179.11   
   134. D(O   2,C  12,C   9,C  10)   -179.59  0.000008   -0.13   -179.72   
   135. D(O   2,C  12,C   9,C   8)     -0.35 -0.000312    0.88      0.54   
   136. D(C  16,C  12,O   2,H  31)     -0.40 -0.000139    0.46      0.06   
   137. D(C   9,C  12,O   2,H  31)    179.99 -0.000175    0.43    180.41   
   138. D(H  25,C  13,C  10,C   9)   -179.73  0.000130   -0.28   -180.01   
   139. D(C  17,C  13,C  10,O   0)    179.49 -0.000125   -0.38    179.11   
   140. D(C  17,C  13,C  10,C   9)      0.63  0.000091   -0.33      0.29   
   141. D(H  25,C  13,C  10,O   0)     -0.86 -0.000086   -0.33     -1.19   
   142. D(H  26,C  14,C  11,C  15)   -178.53 -0.000149    0.26   -178.27   
   143. D(H  26,C  14,C  11,C   7)      1.37 -0.000248    0.92      2.29   
   144. D(C  18,C  14,C  11,C  15)      0.38 -0.000004   -0.14      0.24   
   145. D(C  18,C  14,C  11,C   7)   -179.71 -0.000103    0.52   -179.20   
   146. D(H  28,C  15,C  11,C  14)    179.97  0.000025    0.07    180.04   
   147. D(H  28,C  15,C  11,C   7)      0.07  0.000120   -0.58     -0.51   
   148. D(C  19,C  15,C  11,C  14)     -0.55  0.000076   -0.08     -0.62   
   149. D(C  19,C  15,C  11,C   7)    179.55  0.000172   -0.73    178.82   
   150. D(H  29,C  16,C  12,C   9)    179.81  0.000010    0.10    179.91   
   151. D(H  29,C  16,C  12,O   2)      0.21 -0.000050    0.07      0.29   
   152. D(C  17,C  16,C  12,C   9)     -0.21  0.000005    0.11     -0.10   
   153. D(C  17,C  16,C  12,O   2)   -179.81 -0.000054    0.08   -179.72   
   154. D(C  16,C  17,C  13,H  25)   -179.65 -0.000193    0.24   -179.41   
   155. D(C  16,C  17,C  13,C  10)     -0.01 -0.000150    0.29      0.28   
   156. D(O   3,C  17,C  13,H  25)      0.13 -0.000093    0.11      0.24   
   157. D(O   3,C  17,C  13,C  10)    179.77 -0.000050    0.15    179.92   
   158. D(C  16,C  17,O   3,H  32)    178.98 -0.000055    0.22    179.19   
   159. D(O   3,C  17,C  16,C  12)   -179.98  0.000007   -0.05   -180.03   
   160. D(C  13,C  17,O   3,H  32)     -0.81 -0.000148    0.34     -0.46   
   161. D(C  13,C  17,C  16,H  29)    179.79  0.000092   -0.16    179.62   
   162. D(C  13,C  17,C  16,C  12)     -0.19  0.000096   -0.18     -0.37   
   163. D(O   3,C  17,C  16,H  29)     -0.00  0.000003   -0.04     -0.04   
   164. D(C  20,C  18,C  14,H  26)    178.88  0.000040   -0.12    178.77   
   165. D(C  20,C  18,C  14,C  11)     -0.03 -0.000082    0.29      0.25   
   166. D(O   4,C  18,C  14,H  26)     -0.94  0.000018   -0.09     -1.02   
   167. D(O   4,C  18,C  14,C  11)   -179.85 -0.000103    0.32   -179.54   
   168. D(C  20,C  18,O   4,H  33)    179.79 -0.000130    0.35    180.15   
   169. D(C  14,C  18,O   4,H  33)     -0.39 -0.000112    0.33     -0.06   
   170. D(H  30,C  19,C  15,H  28)     -0.35  0.000023   -0.07     -0.43   
   171. D(H  30,C  19,C  15,C  11)   -179.84 -0.000034    0.08   -179.76   
   172. D(C  20,C  19,C  15,H  28)    179.85 -0.000022    0.01    179.86   
   173. D(C  20,C  19,C  15,C  11)      0.36 -0.000078    0.16      0.52   
   174. D(C  18,C  20,C  19,H  30)   -179.80 -0.000037    0.07   -179.73   
   175. D(C  18,C  20,C  19,C  15)     -0.00 -0.000001   -0.01     -0.01   
   176. D(O   5,C  20,C  19,H  30)     -0.03  0.000007   -0.01     -0.04   
   177. D(O   5,C  20,C  19,C  15)    179.77  0.000044   -0.09    179.67   
   178. D(C  19,C  20,C  18,C  14)     -0.16  0.000079   -0.21     -0.37   
   179. D(C  19,C  20,C  18,O   4)    179.66  0.000083   -0.23    179.43   
   180. D(O   5,C  20,C  18,C  14)   -179.94  0.000059   -0.13   -180.07   
   181. D(O   5,C  20,C  18,O   4)     -0.11  0.000063   -0.16     -0.27   
   182. D(C  19,C  20,O   5,H  34)      0.38 -0.000013    0.02      0.39   
   183. D(C  18,C  20,O   5,H  34)   -179.85  0.000027   -0.06   -179.91   
    ----------------------------------------------------------------------------

Geometry step timings:
Preparation and reading OPT file:      0.003 s ( 2.255 %)
Internal coordinates            :      0.003 s ( 2.077 %)
B/P matrices and projection     :      0.007 s ( 4.689 %)
Hessian update/contruction      :      0.025 s (17.214 %)
Making the step                 :      0.008 s ( 5.349 %)
Converting the step to Cartesian:      0.004 s ( 2.492 %)
Storing new data                :      0.003 s ( 2.396 %)
Checking convergence            :      0.006 s ( 4.042 %)
Final printing                  :      0.085 s (59.482 %)
Total time                      :      0.143 s

Time for energy+gradient        :    273.247 s
Time for complete geometry iter :    273.676 s

         *************************************************************
         *                GEOMETRY OPTIMIZATION CYCLE   3            *
         *************************************************************
---------------------------------
CARTESIAN COORDINATES (ANGSTROEM)
---------------------------------
  O      0.426082    0.635129   -0.252528
  O     -0.705967   -2.823569   -0.078918
  O      4.394991   -1.965046    0.328820
  O      4.665556    2.794667    0.035958
  O     -4.143097    1.300143    1.992480
  O     -5.842300    0.777324    0.008800
  C      0.109914   -1.715226    0.284639
  C     -0.335615   -0.542445   -0.596178
  C      1.599160   -2.007881    0.062791
  C      2.409216   -0.731057    0.040702
  C      1.783238    0.510967   -0.117308
  C     -1.797654   -0.186456   -0.461901
  C      3.806093   -0.737307    0.181646
  C      2.508689    1.709470   -0.120738
  C     -2.282977    0.399122    0.715012
  C     -2.690723   -0.444152   -1.499418
  C      4.555470    0.440522    0.180076
  C      3.894127    1.664727    0.031420
  C     -3.631177    0.719509    0.863939
  C     -4.046183   -0.134379   -1.357970
  C     -4.529044    0.446441   -0.184649
  H     -0.061670   -1.437738    1.337308
  H     -0.124400   -0.805916   -1.642464
  H      1.702257   -2.552950   -0.886556
  H      1.968985   -2.684006    0.845135
  H      1.978280    2.649622   -0.246890
  H     -1.591277    0.632162    1.523056
  H     -0.490560   -3.548957    0.527323
  H     -2.337984   -0.898161   -2.421160
  H      5.636709    0.427945    0.291150
  H     -4.734327   -0.344505   -2.175377
  H      5.351997   -1.839244    0.422769
  H      4.088218    3.564144   -0.087100
  H     -3.417179    1.430521    2.622227
  H     -6.337345    0.532581   -0.788497

----------------------------
CARTESIAN COORDINATES (A.U.)
----------------------------
  NO LB      ZA    FRAG     MASS         X           Y           Z
   0 O     8.0000    0    15.999    0.805179    1.200220   -0.477209
   1 O     8.0000    0    15.999   -1.334085   -5.335771   -0.149134
   2 O     8.0000    0    15.999    8.305329   -3.713399    0.621379
   3 O     8.0000    0    15.999    8.816623    5.281156    0.067951
   4 O     8.0000    0    15.999   -7.829319    2.456914    3.765242
   5 O     8.0000    0    15.999  -11.040347    1.468930    0.016630
   6 C     6.0000    0    12.011    0.207708   -3.241307    0.537889
   7 C     6.0000    0    12.011   -0.634220   -1.025073   -1.126612
   8 C     6.0000    0    12.011    3.021974   -3.794346    0.118658
   9 C     6.0000    0    12.011    4.552758   -1.381498    0.076917
  10 C     6.0000    0    12.011    3.369831    0.965588   -0.221680
  11 C     6.0000    0    12.011   -3.397073   -0.352351   -0.872866
  12 C     6.0000    0    12.011    7.192473   -1.393309    0.343262
  13 C     6.0000    0    12.011    4.740735    3.230430   -0.228162
  14 C     6.0000    0    12.011   -4.314201    0.754231    1.351177
  15 C     6.0000    0    12.011   -5.084730   -0.839326   -2.833489
  16 C     6.0000    0    12.011    8.608590    0.832465    0.340294
  17 C     6.0000    0    12.011    7.358833    3.145878    0.059375
  18 C     6.0000    0    12.011   -6.861931    1.359674    1.632608
  19 C     6.0000    0    12.011   -7.646178   -0.253939   -2.566191
  20 C     6.0000    0    12.011   -8.558653    0.843652   -0.348937
  21 H     1.0000    0     1.008   -0.116540   -2.716932    2.527145
  22 H     1.0000    0     1.008   -0.235083   -1.522960   -3.103807
  23 H     1.0000    0     1.008    3.216800   -4.824376   -1.675348
  24 H     1.0000    0     1.008    3.720842   -5.072036    1.597074
  25 H     1.0000    0     1.008    3.738407    5.007061   -0.466555
  26 H     1.0000    0     1.008   -3.007078    1.194613    2.878159
  27 H     1.0000    0     1.008   -0.927024   -6.706558    0.996497
  28 H     1.0000    0     1.008   -4.418149   -1.697278   -4.575330
  29 H     1.0000    0     1.008   10.651836    0.808698    0.550193
  30 H     1.0000    0     1.008   -8.946581   -0.651021   -4.110867
  31 H     1.0000    0     1.008   10.113810   -3.475668    0.798918
  32 H     1.0000    0     1.008    7.725612    6.735257   -0.164595
  33 H     1.0000    0     1.008   -6.457533    2.703293    4.955292
  34 H     1.0000    0     1.008  -11.975846    1.006432   -1.490043

--------------------------------
INTERNAL COORDINATES (ANGSTROEM)
--------------------------------
 O      0   0   0     0.000000000000     0.00000000     0.00000000
 O      1   0   0     3.643386373644     0.00000000     0.00000000
 O      1   2   0     4.780283291969    74.68150550     0.00000000
 O      1   2   3     4.766546953225   134.71386241   358.88423181
 O      1   2   3     5.134170467734    79.95649412   212.35523206
 O      5   1   2     2.663760000465   102.51214873   288.89236695
 C      2   1   3     1.423467778803    25.16700200    38.15359035
 C      1   2   3     1.443938286502    22.06567626   137.74044059
 C      7   2   1     1.533856284054   111.77705428   238.15983256
 C      9   7   2     1.512269296468   111.16761649   162.68208251
 C      1   2   3     1.369515375516   102.54106180     0.07461806
 C      8   1   2     1.510733772139   107.28864421   122.77539435
 C      3   1   2     1.369599551248    30.94493436   180.57503124
 C     11   1   2     1.400963778329   115.80747904   181.17172955
 C     12   8   1     1.401272489008   120.55089899   308.24890804
 C     12   8   1     1.392990301649   120.70778947   128.81474511
 C     13   3   1     1.396011906754   121.71060626   179.54985156
 C      4   1   2     1.368169999133    28.85235275     1.38666410
 C      5   1   2     1.368504284682    41.54299073   305.34598361
 C     16  12   8     1.397583036661   120.35845335   178.81954223
 C      6   5   1     1.368045233955    62.64036372    12.06061798
 H      7   2   1     1.102067323015   110.53405784   115.64145123
 H      8   1   2     1.099428789338   108.69829643   240.60670881
 H      9   7   2     1.099540208435   108.08920713    40.82768323
 H      9   7   2     1.098169841044   109.96235895   285.35119460
 H     14  11   1     1.086800229799   119.18375157   358.80352658
 H     15  12   8     1.088894611349   119.51743579     2.28994560
 H      2   1   3     0.969596903469   132.14238918    46.73130796
 H     16  12   8     1.086351022455   120.07260652   359.48556978
 H     17  13   3     1.087002456435   121.60601417     0.28558123
 H     20  16  12     1.088966924069   119.61291797   180.23335480
 H      3   1   2     0.969801493134   139.51136547   181.31878403
 H      4   1   2     0.969823377707    79.76493992   180.51853286
 H      5   1   2     0.969812667222    68.60531130   106.84208736
 H      6   5   1     0.969871619503   170.86237643    11.73864446

---------------------------
INTERNAL COORDINATES (A.U.)
---------------------------
 O      0   0   0     0.000000000000     0.00000000     0.00000000
 O      1   0   0     6.885002446248     0.00000000     0.00000000
 O      1   2   0     9.033426264381    74.68150550     0.00000000
 O      1   2   3     9.007468346072   134.71386241   358.88423181
 O      1   2   3     9.702176108884    79.95649412   212.35523206
 O      5   1   2     5.033776887373   102.51214873   288.89236695
 C      2   1   3     2.689964262399    25.16700200    38.15359035
 C      1   2   3     2.728647915772    22.06567626   137.74044059
 C      7   2   1     2.898568305656   111.77705428   238.15983256
 C      9   7   2     2.857774811062   111.16761649   162.68208251
 C      1   2   3     2.588008995920   102.54106180     0.07461806
 C      8   1   2     2.854873090609   107.28864421   122.77539435
 C      3   1   2     2.588168065000    30.94493436   180.57503124
 C     11   1   2     2.647437864585   115.80747904   181.17172955
 C     12   8   1     2.648021243224   120.55089899   308.24890804
 C     12   8   1     2.632370177324   120.70778947   128.81474511
 C     13   3   1     2.638080183458   121.71060626   179.54985156
 C      4   1   2     2.585466603009    28.85235275     1.38666410
 C      5   1   2     2.586098311146    41.54299073   305.34598361
 C     16  12   8     2.641049188704   120.35845335   178.81954223
 C      6   5   1     2.585230830992    62.64036372    12.06061798
 H      7   2   1     2.082605421642   110.53405784   115.64145123
 H      8   1   2     2.077619315598   108.69829643   240.60670881
 H      9   7   2     2.077829867177   108.08920713    40.82768323
 H      9   7   2     2.075240248106   109.96235895   285.35119460
 H     14  11   1     2.053754796603   119.18375157   358.80352658
 H     15  12   8     2.057712604152   119.51743579     2.28994560
 H      2   1   3     1.832272607854   132.14238918    46.73130796
 H     16  12   8     2.052905917744   120.07260652   359.48556978
 H     17  13   3     2.054136949561   121.60601417     0.28558123
 H     20  16  12     2.057849255390   119.61291797   180.23335480
 H      3   1   2     1.832659226291   139.51136547   181.31878403
 H      4   1   2     1.832700582141    79.76493992   180.51853286
 H      5   1   2     1.832680342257    68.60531130   106.84208736
 H      6   5   1     1.832791745923   170.86237643    11.73864446

------------------------------------------------------------------------------
                   ___                                                        
                  /   \      - P O W E R E D   B Y -                         
                 /     \                                                     
                 |  |  |   _    _      __       _____    __    __             
                 |  |  |  | |  | |    /  \     |  _  \  |  |  /  |          
                  \  \/   | |  | |   /    \    | | | |  |  | /  /          
                 / \  \   | |__| |  /  /\  \   | |_| |  |  |/  /          
                |  |  |   |  __  | /  /__\  \  |    /   |      \           
                |  |  |   | |  | | |   __   |  |    \   |  |\   \          
                \     /   | |  | | |  |  |  |  | |\  \  |  | \   \       
                 \___/    |_|  |_| |__|  |__|  |_| \__\ |__|  \__/        
                                                                              
                      - O R C A' S   B I G   F R I E N D -                    
                                      &                                       
                       - I N T E G R A L  F E E D E R -                       
                                                                              
 v1 FN, 2020, v2 2021, v3 2022-2024                                           
------------------------------------------------------------------------------


----------------------
SHARK INTEGRAL PACKAGE
----------------------

Number of atoms                             ...     35
Number of basis functions                   ...    322
Number of shells                            ...    154
Maximum angular momentum                    ...      2
Integral batch strategy                     ... SHARK/LIBINT Hybrid
RI-J (if used) integral strategy            ... SPLIT-RIJ (Revised 2003 algorithm where possible)
Printlevel                                  ...      1
Contraction scheme used                     ... SEGMENTED contraction
Prescreening option                         ... SCHWARTZ
   Thresh                                   ... 2.500e-11
   Tcut                                     ... 2.500e-12
   Tpresel                                  ... 2.500e-12 
Coulomb Range Separation                    ... NOT USED
Exchange Range Separation                   ... NOT USED
Multipole approximations                    ... NOT USED
Finite Nucleus Model                        ... NOT USED
CABS basis                                  ... NOT available
Auxiliary Coulomb fitting basis             ... AVAILABLE
   # of basis functions in Aux-J            ...   1183
   # of shells in Aux-J                     ...    385
   Maximum angular momentum in Aux-J        ...      4
Auxiliary J/K fitting basis                 ... NOT available
Auxiliary Correlation fitting basis         ... NOT available
Auxiliary 'external' fitting basis          ... NOT available

Checking pre-screening integrals            ... done (  0.0 sec) Dimension = 154
   => SHARK Basis and OBASIS are compatible. Storing Pre-screening
Shell pair information
Shell pair cut-off parameter TPreSel        ...   2.5e-12
Total number of shell pairs                 ...     11935
Shell pairs after pre-screening             ...      8445
Total number of primitive shell pairs       ...     69489
Primitive shell pairs kept                  ...     27555
          la=0 lb=0:   2816 shell pairs
          la=1 lb=0:   2886 shell pairs
          la=1 lb=1:    743 shell pairs
          la=2 lb=0:   1208 shell pairs
          la=2 lb=1:    650 shell pairs
          la=2 lb=2:    142 shell pairs

Checking whether 4 symmetric matrices of dimension 322 fit in memory
:Max Core in MB      =   4096.00
 MB in use           =     15.93
 MB left             =   4080.07
 MB needed           =      1.59
 Data fit in memory  = YES
Calculating RI/J V-Matrix + Cholesky decomp.... done (  0.4 sec)
Calculating Nuclear repulsion               ... done (  0.0 sec) ENN=   1637.452597888054 Eh

Diagonalization of the overlap matrix:
Smallest eigenvalue                        ... 3.995e-04
Time for diagonalization                   ...    0.011 sec
Threshold for overlap eigenvalues          ... 1.000e-07
Number of eigenvalues below threshold      ... 0
Time for construction of square roots      ...    0.026 sec
Total time needed                          ...    0.061 sec

-------------------
DFT GRID GENERATION
-------------------

General Integration Accuracy     IntAcc      ... 4.388
Radial Grid Type                 RadialGrid  ... OptM3 with GC (2021)
Angular Grid (max. ang.)         AngularGrid ... 4 (Lebedev-302)
Angular grid pruning method      GridPruning ... 4 (adaptive)
Weight generation scheme         WeightScheme... mBecke (2022)
Basis function cutoff            BFCut       ... 1.0000e-11
Integration weight cutoff        WCut        ... 1.0000e-14
Partially contracted basis set               ... off
Rotationally invariant grid construction     ... off
Angular grids for H and He will be reduced by one unit

Total number of grid points                  ...   170402
Total number of batches                      ...     2678
Average number of points per batch           ...       63
Average number of grid points per atom       ...     4869

--------------------
COSX GRID GENERATION
--------------------

GRIDX 1
-------
General Integration Accuracy     IntAcc      ... 3.816
Radial Grid Type                 RadialGrid  ... OptM3 with GC (2021)
Angular Grid (max. ang.)         AngularGrid ... 1 (Lebedev-50)
Angular grid pruning method      GridPruning ... 4 (adaptive)
Weight generation scheme         WeightScheme... mBecke (2022)
Basis function cutoff            BFCut       ... 1.0000e-11
Integration weight cutoff        WCut        ... 1.0000e-14
Partially contracted basis set               ... on
Rotationally invariant grid construction     ... off
Angular grids for H and He will be reduced by one unit

Total number of grid points                  ...    21680
Total number of batches                      ...      189
Average number of points per batch           ...      114
Average number of grid points per atom       ...      619
UseSFitting                                  ... on

GRIDX 2
-------
General Integration Accuracy     IntAcc      ... 4.020
Radial Grid Type                 RadialGrid  ... OptM3 with GC (2021)
Angular Grid (max. ang.)         AngularGrid ... 2 (Lebedev-110)
Angular grid pruning method      GridPruning ... 4 (adaptive)
Weight generation scheme         WeightScheme... mBecke (2022)
Basis function cutoff            BFCut       ... 1.0000e-11
Integration weight cutoff        WCut        ... 1.0000e-14
Partially contracted basis set               ... on
Rotationally invariant grid construction     ... off
Angular grids for H and He will be reduced by one unit

Total number of grid points                  ...    47469
Total number of batches                      ...      389
Average number of points per batch           ...      122
Average number of grid points per atom       ...     1356
UseSFitting                                  ... on

GRIDX 3
-------
General Integration Accuracy     IntAcc      ... 4.338
Radial Grid Type                 RadialGrid  ... OptM3 with GC (2021)
Angular Grid (max. ang.)         AngularGrid ... 3 (Lebedev-194)
Angular grid pruning method      GridPruning ... 4 (adaptive)
Weight generation scheme         WeightScheme... mBecke (2022)
Basis function cutoff            BFCut       ... 1.0000e-11
Integration weight cutoff        WCut        ... 1.0000e-14
Partially contracted basis set               ... on
Rotationally invariant grid construction     ... off
Angular grids for H and He will be reduced by one unit

Total number of grid points                  ...   104047
Total number of batches                      ...      832
Average number of points per batch           ...      125
Average number of grid points per atom       ...     2973
UseSFitting                                  ... on
Grids setup in   7.1 sec
Initializing property integral containers    ... done (  0.0 sec)

SHARK setup successfully completed in   8.2 seconds

Maximum memory used throughout the entire STARTUP-calculation: 72.9 MB
Occupation numbers will be reassigned to an Aufbau configuration
             **** ENERGY FILE WAS UPDATED (Catechin.en.tmp) ****
Finished Guess after   0.7 sec
Maximum memory used throughout the entire GUESS-calculation: 26.1 MB
----------------------------------------D-I-I-S--------------------------------------------
Iteration    Energy (Eh)           Delta-E    RMSDP     MaxDP     DIISErr   Damp  Time(sec)
-------------------------------------------------------------------------------------------
               ***  Starting incremental Fock matrix formation  ***
    1    -1030.7291183284989984     0.00e+00  1.95e-04  5.24e-03  3.03e-02  0.700  19.5
    2    -1030.7321662266465410    -3.05e-03  1.84e-04  4.71e-03  2.42e-02  0.700   9.6
                               ***Turning on AO-DIIS***
    3    -1030.7346112821767292    -2.45e-03  1.56e-04  3.85e-03  1.84e-02  0.700   9.4
    4    -1030.7364306992969887    -1.82e-03  4.02e-04  9.55e-03  1.34e-02  0.000   9.4
                              *** Initializing SOSCF ***
---------------------------------------S-O-S-C-F--------------------------------------
Iteration    Energy (Eh)           Delta-E    RMSDP     MaxDP     MaxGrad    Time(sec)
--------------------------------------------------------------------------------------
    5    -1030.7410257774884030    -4.60e-03  2.63e-05  7.53e-04  7.50e-04    10.4
               *** Restarting incremental Fock matrix formation ***
    6    -1030.7410305691903432    -4.79e-06  1.79e-05  6.24e-04  1.33e-04    19.3
    7    -1030.7410326778547187    -2.11e-06  9.32e-06  2.44e-04  4.51e-05    12.8
    8    -1030.7410325036883023     1.74e-07  5.36e-06  1.32e-04  7.37e-05    11.4
    9    -1030.7410328923499492    -3.89e-07  1.19e-06  4.00e-05  9.57e-06    10.5
   10    -1030.7410328895668954     2.78e-09  7.48e-07  2.32e-05  1.54e-05     9.7
                 **** Energy Check signals convergence ****

               *****************************************************
               *                     SUCCESS                       *
               *           SCF CONVERGED AFTER  10 CYCLES          *
               *****************************************************

Recomputing exchange energy using gridx3       ... done (   30.028 sec)
Old exchange energy                            :    -26.463313239 Eh
New exchange energy                            :    -26.463338532 Eh
Exchange energy change after final integration :     -0.000025294 Eh
Total energy after final integration           :  -1030.741058193 Eh
             **** ENERGY FILE WAS UPDATED (Catechin.en.tmp) ****

----------------
TOTAL SCF ENERGY
----------------

Total Energy       :      -1030.74105819265219 Eh          -28047.89012 eV

Components:
Nuclear Repulsion  :       1637.45259788805447 Eh           44557.35044 eV
Electronic Energy  :      -2668.19363078691958 Eh          -72605.23987 eV
One Electron Energy:      -4661.92033142631681 Eh         -126857.30152 eV
Two Electron Energy:       1993.72670063939722 Eh           54252.06165 eV

Virial components:
Potential Energy   :      -2055.63460236431911 Eh          -55936.66130 eV
Kinetic Energy     :       1024.89354417166692 Eh           27888.77117 eV
Virial Ratio       :          2.00570548429565

DFT components:
N(Alpha)           :       76.000008362859 electrons
N(Beta)            :       76.000008362859 electrons
N(Total)           :      152.000016725718 electrons
E(X)               :     -105.194560362268 Eh       
E(C)               :       -6.207436480850 Eh       
E(XC)              :     -111.401996843118 Eh       

---------------
SCF CONVERGENCE
---------------

  Last Energy change         ...   -2.7831e-09  Tolerance :   1.0000e-08
  Last MAX-Density change    ...    2.3217e-05  Tolerance :   1.0000e-07
  Last RMS-Density change    ...    7.4807e-07  Tolerance :   5.0000e-09
  Last DIIS Error            ...    7.4975e-04  Tolerance :   5.0000e-07
  Last Orbital Gradient      ...    1.5415e-05  Tolerance :   1.0000e-05
  Last Orbital Rotation      ...    2.4103e-05  Tolerance :   1.0000e-05


Total SCF time: 0 days 0 hours 2 min 44 sec 
Finished LeanSCF after 164.6 sec

Maximum memory used throughout the entire LEANSCF-calculation: 50.3 MB

------------------------------------------------------------------------------
                         ORCA PROPERTY INTEGRAL CALCULATIONS
------------------------------------------------------------------------------

GBWName                                   ... Catechin.gbw
Number of atoms                           ...     35
Number of basis functions                 ...    322
Max core memory                           ...   4096 MB

Dipole integrals                          ... YES
Quadrupole integrals                      ...  NO
Linear momentum integrals                 ...  NO
Angular momentum integrals                ...  NO
Higher moments length integrals           ...  NO
Higher moments velocity integrals         ...  NO
Kinetic energy integrals                  ...  NO
GIAO right hand sides                     ...  NO
GIAO dipole derivative integrals          ...  NO
SOC integrals                             ...  NO
EPR diamagnetic integrals (GIAO)          ...  NO
EPR gauge integrals                       ...  NO
Field gradient integrals                  ...  NO (   0 nuclei)
Spin-dipole/Fermi contact integrals       ...  NO (   0 nuclei)
Contact density integrals                 ...  NO (   0 nuclei)
Nucleus-orbit integrals                   ...  NO (   0 nuclei)
Geometric perturbations                   ...  NO (  35 nuclei)

Choice of electric origin   ... Center of mass
Position of electric origin ... ( -0.0090, -0.0047,  0.0528) 
Choice of magnetic origin   ... GIAO
Position of magnetic origin ... (  0.0000,  0.0000,  0.0000) 

Calculating integrals                     ... Electric Dipole (Length)     done (  0.1 sec)

Property integrals calculated in   0.1 sec

Maximum memory used throughout the entire PROPINT-calculation: 25.9 MB

-------------------------   --------------------
FINAL SINGLE POINT ENERGY     -1030.741058192652
-------------------------   --------------------

------------------------------------------------------------------------------
                         ORCA SCF GRADIENT CALCULATION
------------------------------------------------------------------------------

Nuc. rep. gradient        (SHARK) ... done (  0.0 sec)
HCore & Overlap gradient  (SHARK) ... done (  1.0 sec)
Split-RIJ-J gradient      (SHARK) ... done (  5.0 sec)
COSX-gradient                     ... done ( 69.1 sec)
XC gradient                       ... done ( 15.3 sec)

------------------
CARTESIAN GRADIENT
------------------

   1   O   :   -0.000626476   -0.000412674   -0.000376325
   2   O   :   -0.001006170   -0.000148574   -0.001178725
   3   O   :   -0.000090389    0.000148900    0.000197619
   4   O   :   -0.000146908    0.000725467    0.000013638
   5   O   :    0.000251744    0.000383891    0.000745012
   6   O   :   -0.001030143    0.000103701   -0.000241346
   7   C   :    0.000393498    0.002820638   -0.000164050
   8   C   :   -0.000020126   -0.002933759    0.000639642
   9   C   :    0.000043499   -0.000756854    0.000276499
  10   C   :    0.001857173    0.001500824   -0.000102486
  11   C   :    0.000280274    0.000210534    0.000008548
  12   C   :   -0.000797611    0.000333457    0.000725366
  13   C   :   -0.000904643   -0.002076774   -0.000118569
  14   C   :   -0.000586631   -0.000664570   -0.000131559
  15   C   :    0.001069192   -0.001070912   -0.000897875
  16   C   :    0.000240792    0.000807479    0.000146596
  17   C   :   -0.000109394    0.000884037   -0.000121615
  18   C   :    0.001282474    0.000177120    0.000109474
  19   C   :   -0.002799204   -0.000442006   -0.002125791
  20   C   :   -0.000384676   -0.000332835   -0.000988170
  21   C   :    0.002124050    0.000959399    0.003124197
  22   H   :    0.000084082   -0.000940312    0.000281356
  23   H   :   -0.000456909    0.000192229    0.000016447
  24   H   :    0.000539713    0.000171862   -0.000004696
  25   H   :   -0.000426185   -0.000362172    0.000083122
  26   H   :    0.000186695    0.000301716    0.000061041
  27   H   :    0.000198490   -0.000122268    0.000044292
  28   H   :    0.000091012    0.000955084    0.000636793
  29   H   :   -0.000044992   -0.000019634   -0.000002430
  30   H   :    0.000189653    0.000051087    0.000040749
  31   H   :    0.000653658   -0.000353291   -0.000463653
  32   H   :   -0.000228840    0.000210219   -0.000183874
  33   H   :    0.000116152   -0.000186600   -0.000043435
  34   H   :   -0.000114243   -0.000105452   -0.000102854
  35   H   :    0.000171386   -0.000008954    0.000097065

Difference to translation invariance:
           :   -0.0000000001    0.0000000000    0.0000000001

Difference to rotation invariance:
           :   -0.0000537660    0.0000185593    0.0000914242

Norm of the Cartesian gradient     ...    0.0087314823
RMS gradient                       ...    0.0008521054
MAX gradient                       ...    0.0031241966

-------
TIMINGS
-------

Total SCF gradient time     ....       90.487 sec

Densities                   ....       0.002 sec  (  0.0%)
One electron gradient       ....       1.016 sec  (  1.1%)
RI-J Coulomb gradient       ....       5.028 sec  (  5.6%)
COSX gradient               ....      69.124 sec  ( 76.4%)
XC gradient                 ....      15.314 sec  ( 16.9%)

Maximum memory used throughout the entire SCFGRAD-calculation: 56.7 MB
------------------------------------------------------------------------------
                         ORCA GEOMETRY RELAXATION STEP
------------------------------------------------------------------------------

Reading the OPT-File                    .... done
Getting information on internals        .... done
Copying old internal coords+grads       .... done
Making the new internal coordinates     .... (2022 redundants) done
Validating the new internal coordinates .... (2022 redundants) done
Calculating the B-matrix                .... done
Calculating the G,G- and P matrices     .... done
Transforming gradient to internals      .... done
Projecting the internal gradient        .... done
Number of atoms                         ....  35
Number of internal coordinates          .... 183
Current Energy                          .... -1030.741058193 Eh
Current gradient norm                   ....     0.008731482 Eh/bohr
Maximum allowed component of the step   ....  0.300
Current trust radius                    ....  0.300
Updating the Hessian (BFGS)             .... done
Forming the augmented Hessian           .... done
Diagonalizing the augmented Hessian     .... done
Last element of RFO vector              ....  0.984902647
Lowest eigenvalues of augmented Hessian:
 -0.000389251  0.009020988  0.015001663  0.017742106  0.019370838
Length of the computed step             ....  0.175762697
The final length of the internal step   ....  0.175762697
Converting the step to Cartesian space:
 Initial RMS(Int)=    0.0129927524
Transforming coordinates:
 Iter   0:  RMS(Cart)=    0.0758669347 RMS(Int)=    0.0130007817
 Iter   5:  RMS(Cart)=    0.0000000187 RMS(Int)=    0.0000000076
done
Storing new coordinates                 .... done
The predicted energy change is          ....    -0.000200638
Previously predicted energy change      ....    -0.001040410
Actually observed energy change         ....    -0.001183229
Ratio of predicted to observed change   ....     1.137272038
New trust radius                        ....     0.450000000

                                .--------------------.
          ----------------------|Geometry convergence|-------------------------
          Item                value                   Tolerance       Converged
          ---------------------------------------------------------------------
          Energy change      -0.0011832294            0.0000050000      NO
          RMS gradient        0.0004736107            0.0001000000      NO
          MAX gradient        0.0020396396            0.0003000000      NO
          RMS step            0.0129927524            0.0020000000      NO
          MAX step            0.0802102280            0.0040000000      NO
          -------------------------------------------------------------------------
          ........................................................
          Max(Bonds)      0.0034      Max(Angles)    0.39
          Max(Dihed)        4.60      Max(Improp)    0.00
          ---------------------------------------------------------------------

The optimization has not yet converged - more geometry cycles are needed


    ---------------------------------------------------------------------------
                         Redundant Internal Coordinates
                            (Angstroem and degrees)

        Definition                    Value    dE/dq     Step     New-Value
    ----------------------------------------------------------------------------
     1. B(C   6,O   1)                1.4235  0.000036 -0.0007    1.4228   
     2. B(C   7,O   0)                1.4439  0.000192  0.0002    1.4441   
     3. B(C   7,C   6)                1.5329 -0.002040  0.0034    1.5363   
     4. B(C   8,C   6)                1.5339  0.000855 -0.0011    1.5327   
     5. B(C   9,C   8)                1.5123  0.001100 -0.0008    1.5114   
     6. B(C  10,C   9)                1.3998 -0.000006  0.0001    1.3999   
     7. B(C  10,O   0)                1.3695  0.001078 -0.0012    1.3683   
     8. B(C  11,C   7)                1.5107  0.000484 -0.0020    1.5087   
     9. B(C  12,C   9)                1.4040 -0.000715  0.0011    1.4051   
    10. B(C  12,O   2)                1.3696 -0.000457  0.0007    1.3703   
    11. B(C  13,C  10)                1.4010  0.000214  0.0000    1.4010   
    12. B(C  14,C  11)                1.4013 -0.001041  0.0008    1.4021   
    13. B(C  15,C  11)                1.3930 -0.000566 -0.0003    1.3927   
    14. B(C  16,C  12)                1.3960  0.001364 -0.0014    1.3946   
    15. B(C  17,O   3)                1.3682  0.000427 -0.0002    1.3680   
    16. B(C  17,C  16)                1.3993  0.000098  0.0007    1.4000   
    17. B(C  17,C  13)                1.3945  0.000803 -0.0006    1.3939   
    18. B(C  18,C  14)                1.3937  0.001423 -0.0017    1.3920   
    19. B(C  18,O   4)                1.3685  0.000596 -0.0006    1.3679   
    20. B(C  19,C  15)                1.3976 -0.000281  0.0003    1.3978   
    21. B(C  20,C  19)                1.3954  0.001500 -0.0015    1.3939   
    22. B(C  20,C  18)                1.4072 -0.002003  0.0033    1.4106   
    23. B(C  20,O   5)                1.3680  0.000827 -0.0009    1.3672   
    24. B(H  21,C   6)                1.1021  0.000019  0.0003    1.1024   
    25. B(H  22,C   7)                1.0994 -0.000149  0.0003    1.0998   
    26. B(H  23,C   8)                1.0995 -0.000030  0.0002    1.0997   
    27. B(H  24,C   8)                1.0982  0.000138 -0.0002    1.0979   
    28. B(H  25,C  13)                1.0868  0.000162 -0.0002    1.0866   
    29. B(H  26,C  14)                1.0889  0.000133 -0.0000    1.0889   
    30. B(H  27,O   1)                0.9696 -0.000297  0.0003    0.9699   
    31. B(H  28,C  15)                1.0864 -0.000004 -0.0001    1.0862   
    32. B(H  29,C  16)                1.0870  0.000192 -0.0003    1.0868   
    33. B(H  30,C  19)                1.0890  0.000003  0.0003    1.0892   
    34. B(H  31,O   2)                0.9698 -0.000217  0.0002    0.9700   
    35. B(H  32,O   3)                0.9698 -0.000212  0.0002    0.9700   
    36. B(H  33,O   4)                0.9698 -0.000166  0.0003    0.9702   
    37. B(H  34,O   5)                0.9699 -0.000165  0.0003    0.9702   
    38. A(C   7,O   0,C  10)          118.18  0.000713    0.10    118.28   
    39. A(C   6,O   1,H  27)          107.19 -0.001669    0.34    107.53   
    40. A(C  12,O   2,H  31)          108.57 -0.000459    0.09    108.66   
    41. A(C  17,O   3,H  32)          108.61 -0.000041    0.01    108.62   
    42. A(C  18,O   4,H  33)          108.21 -0.000067   -0.05    108.17   
    43. A(C  20,O   5,H  34)          108.22 -0.000195   -0.02    108.21   
    44. A(O   1,C   6,C   8)          111.78  0.000778    0.03    111.80   
    45. A(C   8,C   6,H  21)          109.72 -0.000460    0.09    109.81   
    46. A(C   7,C   6,C   8)          110.19  0.000607   -0.12    110.06   
    47. A(O   1,C   6,C   7)          106.40 -0.001249   -0.06    106.34   
    48. A(C   7,C   6,H  21)          108.12  0.000608   -0.36    107.76   
    49. A(O   1,C   6,H  21)          110.53 -0.000289    0.39    110.92   
    50. A(C   6,C   7,C  11)          114.24  0.000239    0.08    114.32   
    51. A(C  11,C   7,H  22)          109.09 -0.000477    0.22    109.31   
    52. A(C   6,C   7,H  22)          107.92  0.000422   -0.28    107.63   
    53. A(O   0,C   7,C  11)          107.29  0.000254   -0.00    107.28   
    54. A(O   0,C   7,H  22)          108.70 -0.000049    0.11    108.81   
    55. A(O   0,C   7,C   6)          109.50 -0.000408   -0.12    109.39   
    56. A(C   6,C   8,C   9)          111.17  0.000082   -0.06    111.10   
    57. A(C   9,C   8,H  24)          110.48  0.000721   -0.21    110.27   
    58. A(C   6,C   8,H  24)          109.96 -0.000477    0.23    110.19   
    59. A(C   9,C   8,H  23)          110.84 -0.000458    0.33    111.17   
    60. A(C   6,C   8,H  23)          108.09  0.000300   -0.27    107.82   
    61. A(H  23,C   8,H  24)          106.16 -0.000196   -0.02    106.14   
    62. A(C   8,C   9,C  10)          120.75 -0.000654    0.12    120.86   
    63. A(C  10,C   9,C  12)          117.40  0.000602   -0.19    117.21   
    64. A(C   8,C   9,C  12)          121.85  0.000053    0.07    121.93   
    65. A(C   9,C  10,C  13)          121.85 -0.000277    0.15    122.01   
    66. A(O   0,C  10,C  13)          115.81  0.000518   -0.06    115.74   
    67. A(O   0,C  10,C   9)          122.33 -0.000243   -0.09    122.24   
    68. A(C  14,C  11,C  15)          118.74 -0.000118    0.03    118.77   
    69. A(C   7,C  11,C  15)          120.71 -0.000419    0.13    120.83   
    70. A(C   7,C  11,C  14)          120.55  0.000538   -0.15    120.40   
    71. A(O   2,C  12,C   9)          116.27  0.000235   -0.23    116.04   
    72. A(C   9,C  12,C  16)          122.02 -0.000346    0.12    122.14   
    73. A(O   2,C  12,C  16)          121.71  0.000111    0.11    121.82   
    74. A(C  17,C  13,H  25)          121.69 -0.000475    0.13    121.82   
    75. A(C  10,C  13,H  25)          119.18  0.000172   -0.04    119.15   
    76. A(C  10,C  13,C  17)          119.13  0.000302   -0.09    119.03   
    77. A(C  11,C  14,C  18)          121.39  0.000201    0.06    121.44   
    78. A(C  11,C  14,H  26)          119.52 -0.000276    0.06    119.58   
    79. A(C  18,C  14,H  26)          119.08  0.000075   -0.12    118.96   
    80. A(C  11,C  15,C  19)          120.36  0.000264   -0.08    120.27   
    81. A(C  19,C  15,H  28)          119.57 -0.000175    0.08    119.65   
    82. A(C  11,C  15,H  28)          120.07 -0.000089    0.00    120.07   
    83. A(C  17,C  16,H  29)          119.41 -0.000144    0.05    119.46   
    84. A(C  12,C  16,H  29)          121.61 -0.000038    0.00    121.61   
    85. A(C  12,C  16,C  17)          118.98  0.000182   -0.05    118.93   
    86. A(C  13,C  17,C  16)          120.61 -0.000464    0.06    120.67   
    87. A(O   3,C  17,C  16)          117.11  0.000678   -0.17    116.94   
    88. A(O   3,C  17,C  13)          122.28 -0.000214    0.11    122.39   
    89. A(C  14,C  18,C  20)          119.54 -0.000012   -0.06    119.48   
    90. A(O   4,C  18,C  20)          117.27  0.000545   -0.27    117.00   
    91. A(O   4,C  18,C  14)          123.20 -0.000533    0.33    123.52   
    92. A(C  20,C  19,H  30)          119.53  0.001007   -0.34    119.19   
    93. A(C  15,C  19,H  30)          119.61 -0.000793    0.21    119.83   
    94. A(C  15,C  19,C  20)          120.86 -0.000214    0.13    120.99   
    95. A(O   5,C  20,C  18)          117.40  0.000532   -0.26    117.14   
    96. A(C  18,C  20,C  19)          119.11 -0.000122   -0.07    119.05   
    97. A(O   5,C  20,C  19)          123.49 -0.000409    0.32    123.81   
    98. D(C   8,C   6,O   1,H  27)     64.81  0.000156   -1.41     63.40   
    99. D(H  21,C   6,O   1,H  27)    -57.71  0.000409   -1.83    -59.54   
   100. D(C   7,C   6,O   1,H  27)   -174.87  0.000551   -1.60   -176.47   
   101. D(O   0,C   7,C   6,O   1)    178.28 -0.000340   -0.10    178.18   
   102. D(C  11,C   7,O   0,C  10)    171.00  0.000162   -0.08    170.93   
   103. D(H  22,C   7,O   0,C  10)    -71.16 -0.000289    0.24    -70.93   
   104. D(C  11,C   7,C   6,O   1)     57.93 -0.000530   -0.06     57.88   
   105. D(O   0,C   7,C   6,C   8)    -60.37  0.000183   -0.19    -60.56   
   106. D(C  11,C   7,C   6,H  21)    -60.82  0.000162   -0.33    -61.15   
   107. D(C  11,C   7,C   6,C   8)    179.28 -0.000007   -0.15    179.13   
   108. D(C   6,C   7,O   0,C  10)     46.51 -0.000041   -0.10     46.41   
   109. D(O   0,C   7,C   6,H  21)     59.52  0.000353   -0.37     59.15   
   110. D(C   9,C   8,C   6,H  21)    -74.33 -0.000493    0.71    -73.62   
   111. D(C   9,C   8,C   6,O   1)    162.68 -0.000332    0.13    162.81   
   112. D(C   9,C   8,C   6,C   7)     44.59  0.000342    0.26     44.85   
   113. D(H  23,C   8,C   6,O   1)     40.83 -0.000013   -0.07     40.76   
   114. D(H  23,C   8,C   6,C   7)    -77.26  0.000661    0.07    -77.19   
   115. D(H  23,C   8,C   6,H  21)    163.81 -0.000174    0.52    164.33   
   116. D(C  12,C   9,C   8,C   6)    164.09  0.000180   -0.50    163.59   
   117. D(C  10,C   9,C   8,H  23)    104.60  0.000200   -0.22    104.38   
   118. D(C  10,C   9,C   8,H  24)   -138.01  0.000124   -0.16   -138.17   
   119. D(C  12,C   9,C   8,H  23)    -75.67  0.000307   -0.67    -76.33   
   120. D(C  10,C   9,C   8,C   6)    -15.64  0.000074   -0.06    -15.70   
   121. D(C  13,C  10,C   9,C  12)     -0.73  0.000018    0.11     -0.62   
   122. D(C  13,C  10,C   9,C   8)    179.01  0.000119   -0.32    178.69   
   123. D(O   0,C  10,C   9,C  12)   -179.47  0.000101    0.10   -179.37   
   124. D(O   0,C  10,C   9,C   8)      0.27  0.000202   -0.33     -0.05   
   125. D(C  13,C  10,O   0,C   7)    164.49  0.000005    0.33    164.82   
   126. D(C   9,C  10,O   0,C   7)    -16.70 -0.000082    0.34    -16.36   
   127. D(C  14,C  11,C   7,C   6)     69.82 -0.000690    3.91     73.73   
   128. D(C  14,C  11,C   7,O   0)    -51.75 -0.000507    4.01    -47.74   
   129. D(C  15,C  11,C   7,C   6)   -109.61 -0.000799    4.50   -105.11   
   130. D(C  15,C  11,C   7,O   0)    128.81 -0.000617    4.60    133.41   
   131. D(C  14,C  11,C   7,H  22)   -169.33 -0.000336    3.77   -165.57   
   132. D(C  16,C  12,C   9,C  10)      0.64 -0.000027   -0.05      0.58   
   133. D(C  16,C  12,C   9,C   8)   -179.11 -0.000127    0.38   -178.73   
   134. D(O   2,C  12,C   9,C  10)   -179.72 -0.000006   -0.06   -179.78   
   135. D(O   2,C  12,C   9,C   8)      0.54 -0.000106    0.38      0.91   
   136. D(C  16,C  12,O   2,H  31)      0.06 -0.000116    0.39      0.44   
   137. D(C   9,C  12,O   2,H  31)   -179.59 -0.000135    0.39   -179.19   
   138. D(H  25,C  13,C  10,C   9)    179.99  0.000044   -0.15    179.84   
   139. D(C  17,C  13,C  10,O   0)    179.11 -0.000088   -0.11    179.00   
   140. D(C  17,C  13,C  10,C   9)      0.29 -0.000002   -0.11      0.18   
   141. D(H  25,C  13,C  10,O   0)     -1.20 -0.000042   -0.14     -1.33   
   142. D(H  26,C  14,C  11,C  15)   -178.26 -0.000014    0.01   -178.25   
   143. D(H  26,C  14,C  11,C   7)      2.29 -0.000120    0.59      2.88   
   144. D(C  18,C  14,C  11,C  15)      0.24  0.000027   -0.18      0.06   
   145. D(C  18,C  14,C  11,C   7)   -179.20 -0.000079    0.40   -178.81   
   146. D(H  28,C  15,C  11,C  14)   -179.96 -0.000018    0.13   -179.83   
   147. D(H  28,C  15,C  11,C   7)     -0.51  0.000093   -0.44     -0.96   
   148. D(C  19,C  15,C  11,C  14)     -0.62 -0.000031    0.14     -0.48   
   149. D(C  19,C  15,C  11,C   7)    178.82  0.000080   -0.43    178.39   
   150. D(H  29,C  16,C  12,C   9)    179.91  0.000002    0.05    179.96   
   151. D(H  29,C  16,C  12,O   2)      0.29 -0.000020    0.05      0.34   
   152. D(C  17,C  16,C  12,C   9)     -0.10  0.000018   -0.00     -0.10   
   153. D(C  17,C  16,C  12,O   2)   -179.72 -0.000004    0.00   -179.72   
   154. D(C  16,C  17,C  13,H  25)   -179.41 -0.000066    0.09   -179.32   
   155. D(C  16,C  17,C  13,C  10)      0.27 -0.000016    0.06      0.33   
   156. D(O   3,C  17,C  13,H  25)      0.23 -0.000042    0.07      0.30   
   157. D(O   3,C  17,C  13,C  10)    179.92  0.000008    0.04    179.96   
   158. D(C  16,C  17,O   3,H  32)    179.19 -0.000050    0.18    179.38   
   159. D(O   3,C  17,C  16,C  12)    179.97 -0.000012    0.02    179.99   
   160. D(C  13,C  17,O   3,H  32)     -0.46 -0.000070    0.20     -0.26   
   161. D(C  13,C  17,C  16,H  29)    179.62  0.000023   -0.05    179.58   
   162. D(C  13,C  17,C  16,C  12)     -0.37  0.000008    0.00     -0.37   
   163. D(O   3,C  17,C  16,H  29)     -0.04  0.000004   -0.03     -0.07   
   164. D(C  20,C  18,C  14,H  26)    178.77  0.000018   -0.05    178.71   
   165. D(C  20,C  18,C  14,C  11)      0.25 -0.000017    0.14      0.39   
   166. D(O   4,C  18,C  14,H  26)     -1.02  0.000024   -0.06     -1.09   
   167. D(O   4,C  18,C  14,C  11)   -179.54 -0.000012    0.13   -179.41   
   168. D(C  20,C  18,O   4,H  33)   -179.85 -0.000063    0.21   -179.64   
   169. D(C  14,C  18,O   4,H  33)     -0.06 -0.000069    0.23      0.16   
   170. D(H  30,C  19,C  15,H  28)     -0.43  0.000019   -0.07     -0.50   
   171. D(H  30,C  19,C  15,C  11)   -179.77  0.000031   -0.08   -179.85   
   172. D(C  20,C  19,C  15,H  28)    179.85  0.000016   -0.05    179.80   
   173. D(C  20,C  19,C  15,C  11)      0.52  0.000028   -0.06      0.45   
   174. D(C  18,C  20,C  19,H  30)   -179.73 -0.000015    0.03   -179.70   
   175. D(C  18,C  20,C  19,C  15)     -0.01 -0.000017    0.02      0.00   
   176. D(O   5,C  20,C  19,H  30)     -0.04  0.000004   -0.01     -0.05   
   177. D(O   5,C  20,C  19,C  15)    179.67  0.000002   -0.03    179.65   
   178. D(C  19,C  20,C  18,C  14)     -0.37  0.000015   -0.06     -0.42   
   179. D(C  19,C  20,C  18,O   4)    179.44  0.000008   -0.04    179.39   
   180. D(O   5,C  20,C  18,C  14)    179.93 -0.000000   -0.02    179.91   
   181. D(O   5,C  20,C  18,O   4)     -0.27 -0.000008   -0.00     -0.28   
   182. D(C  19,C  20,O   5,H  34)      0.39  0.000005   -0.01      0.38   
   183. D(C  18,C  20,O   5,H  34)   -179.91  0.000022   -0.06   -179.97   
    ----------------------------------------------------------------------------

Geometry step timings:
Preparation and reading OPT file:      0.003 s ( 2.079 %)
Internal coordinates            :      0.002 s ( 1.576 %)
B/P matrices and projection     :      0.007 s ( 5.152 %)
Hessian update/contruction      :      0.024 s (16.972 %)
Making the step                 :      0.007 s ( 5.185 %)
Converting the step to Cartesian:      0.002 s ( 1.612 %)
Storing new data                :      0.005 s ( 3.216 %)
Checking convergence            :      0.004 s ( 3.088 %)
Final printing                  :      0.087 s (61.116 %)
Total time                      :      0.142 s

Time for energy+gradient        :    265.172 s
Time for complete geometry iter :    265.564 s

         *************************************************************
         *                GEOMETRY OPTIMIZATION CYCLE   4            *
         *************************************************************
---------------------------------
CARTESIAN COORDINATES (ANGSTROEM)
---------------------------------
  O      0.425595    0.635530   -0.244135
  O     -0.705381   -2.825928   -0.124667
  O      4.391234   -1.971438    0.299244
  O      4.659811    2.792632    0.110621
  O     -4.112289    1.411730    1.945675
  O     -5.839588    0.764844    0.035592
  C      0.110829   -1.724450    0.255877
  C     -0.336052   -0.535931   -0.608972
  C      1.598577   -2.012207    0.025463
  C      2.406539   -0.734874    0.026931
  C      1.781202    0.510477   -0.106404
  C     -1.796206   -0.181854   -0.471638
  C      3.803741   -0.739670    0.175423
  C      2.503561    1.710613   -0.081342
  C     -2.264758    0.460741    0.683074
  C     -2.706714   -0.506465   -1.474281
  C      4.551002    0.437545    0.203454
  C      3.887581    1.663961    0.077455
  C     -3.611194    0.775487    0.843284
  C     -4.062505   -0.203054   -1.320223
  C     -4.529162    0.435069   -0.172149
  H     -0.058427   -1.454912    1.311343
  H     -0.119874   -0.787033   -1.657639
  H      1.694348   -2.541545   -0.933715
  H      1.974671   -2.701092    0.793212
  H      1.970994    2.651262   -0.191688
  H     -1.560190    0.746278    1.462620
  H     -0.476072   -3.572072    0.450956
  H     -2.367280   -1.007049   -2.376559
  H      5.631457    0.423768    0.319442
  H     -4.768633   -0.462490   -2.107948
  H      5.347441   -1.849759    0.407633
  H      4.083447    3.565498    0.004056
  H     -3.376840    1.588764    2.553118
  H     -6.351366    0.473625   -0.735510

----------------------------
CARTESIAN COORDINATES (A.U.)
----------------------------
  NO LB      ZA    FRAG     MASS         X           Y           Z
   0 O     8.0000    0    15.999    0.804258    1.200978   -0.461348
   1 O     8.0000    0    15.999   -1.332976   -5.340230   -0.235586
   2 O     8.0000    0    15.999    8.298230   -3.725478    0.565488
   3 O     8.0000    0    15.999    8.805767    5.277309    0.209043
   4 O     8.0000    0    15.999   -7.771101    2.667782    3.676793
   5 O     8.0000    0    15.999  -11.035222    1.445345    0.067260
   6 C     6.0000    0    12.011    0.209437   -3.258738    0.483537
   7 C     6.0000    0    12.011   -0.635046   -1.012762   -1.150790
   8 C     6.0000    0    12.011    3.020873   -3.802520    0.048118
   9 C     6.0000    0    12.011    4.547699   -1.388710    0.050892
  10 C     6.0000    0    12.011    3.365984    0.964661   -0.201075
  11 C     6.0000    0    12.011   -3.394336   -0.343655   -0.891267
  12 C     6.0000    0    12.011    7.188028   -1.397773    0.331502
  13 C     6.0000    0    12.011    4.731045    3.232589   -0.153714
  14 C     6.0000    0    12.011   -4.279772    0.870675    1.290822
  15 C     6.0000    0    12.011   -5.114948   -0.957081   -2.785987
  16 C     6.0000    0    12.011    8.600147    0.826840    0.384472
  17 C     6.0000    0    12.011    7.346463    3.144430    0.146368
  18 C     6.0000    0    12.011   -6.824168    1.465458    1.593576
  19 C     6.0000    0    12.011   -7.677023   -0.383717   -2.494860
  20 C     6.0000    0    12.011   -8.558876    0.822162   -0.325314
  21 H     1.0000    0     1.008   -0.110411   -2.749385    2.478079
  22 H     1.0000    0     1.008   -0.226528   -1.487276   -3.132484
  23 H     1.0000    0     1.008    3.201855   -4.802824   -1.764466
  24 H     1.0000    0     1.008    3.731587   -5.104324    1.498954
  25 H     1.0000    0     1.008    3.724639    5.010160   -0.362237
  26 H     1.0000    0     1.008   -2.948332    1.410260    2.763951
  27 H     1.0000    0     1.008   -0.899645   -6.750238    0.852183
  28 H     1.0000    0     1.008   -4.473512   -1.903047   -4.491046
  29 H     1.0000    0     1.008   10.641912    0.800806    0.603658
  30 H     1.0000    0     1.008   -9.011410   -0.873980   -3.983445
  31 H     1.0000    0     1.008   10.105198   -3.495539    0.770315
  32 H     1.0000    0     1.008    7.716597    6.737815    0.007664
  33 H     1.0000    0     1.008   -6.381302    3.002328    4.824693
  34 H     1.0000    0     1.008  -12.002343    0.895021   -1.389913

--------------------------------
INTERNAL COORDINATES (ANGSTROEM)
--------------------------------
 O      0   0   0     0.000000000000     0.00000000     0.00000000
 O      1   0   0     3.643496921509     0.00000000     0.00000000
 O      1   2   0     4.776802438242    74.66153016     0.00000000
 O      1   2   3     4.765241761834   134.70320254   358.36907090
 O      1   2   3     5.098053259937    81.61991588   211.69940240
 O      5   1   2     2.655266197357   103.47115390   292.99459167
 C      2   1   3     1.422766781200    25.20296907    38.02078120
 C      1   2   3     1.444137090706    22.16775732   137.63137728
 C      7   2   1     1.532739041692   111.79493388   238.24723242
 C      9   7   2     1.511418160773   111.10454230   162.80472002
 C      1   2   3     1.368312373666   102.55638845   359.91548845
 C      8   1   2     1.508734365398   107.28083912   122.70304154
 C      3   1   2     1.370304288635    31.04221446   180.95579668
 C     11   1   2     1.400984282758   115.74275643   181.57576034
 C     12   8   1     1.402080672747   120.39432397   312.25977347
 C     12   8   1     1.392727433173   120.82907096   133.41285144
 C     13   3   1     1.394639468954   121.81829528   179.46584986
 C      4   1   2     1.367968796362    28.72996305     1.98939926
 C      5   1   2     1.367905936612    42.00794428   308.26595004
 C     16  12   8     1.397842334064   120.27555771   178.38387152
 C      6   5   1     1.367158786957    62.90600366    11.26825205
 H      7   2   1     1.102409616065   110.93358640   115.31166842
 H      8   1   2     1.099767477416   108.81030495   240.85113706
 H      9   7   2     1.099724450740   107.81910535    40.75834429
 H      9   7   2     1.097928777592   110.19212067   285.32802865
 H     14  11   1     1.086566242031   119.14769338   358.66543943
 H     15  12   8     1.088870040855   119.57479468     2.88053983
 H      2   1   3     0.969873755677   132.60604857    44.69337569
 H     16  12   8     1.086234308090   120.07378512   359.03839936
 H     17  13   3     1.086750493603   121.61106978     0.33793386
 H     20  16  12     1.089235552997   119.82639568   180.15379210
 H      3   1   2     0.969991851687   139.69732622   182.39005024
 H      4   1   2     0.969986728050    79.89344882   181.24206389
 H      5   1   2     0.970161573730    67.78733017   111.32314389
 H      6   5   1     0.970218984109   171.11113661    10.57334052

---------------------------
INTERNAL COORDINATES (A.U.)
---------------------------
 O      0   0   0     0.000000000000     0.00000000     0.00000000
 O      1   0   0     6.885211351438     0.00000000     0.00000000
 O      1   2   0     9.026848404125    74.66153016     0.00000000
 O      1   2   3     9.005001891790   134.70320254   358.36907090
 O      1   2   3     9.633924477426    81.61991588   211.69940240
 O      5   1   2     5.017725925662   103.47115390   292.99459167
 C      2   1   3     2.688639568908    25.20296907    38.02078120
 C      1   2   3     2.729023601271    22.16775732   137.63137728
 C      7   2   1     2.896457023567   111.79493388   238.24723242
 C      9   7   2     2.856166397696   111.10454230   162.80472002
 C      1   2   3     2.585735651884   102.55638845   359.91548845
 C      8   1   2     2.851094759438   107.28083912   122.70304154
 C      3   1   2     2.589499825658    31.04221446   180.95579668
 C     11   1   2     2.647476612341   115.74275643   181.57576034
 C     12   8   1     2.649548489155   120.39432397   312.25977347
 C     12   8   1     2.631873427897   120.82907096   133.41285144
 C     13   3   1     2.635486651881   121.81829528   179.46584986
 C      4   1   2     2.585086384875    28.72996305     1.98939926
 C      5   1   2     2.584967597163    42.00794428   308.26595004
 C     16  12   8     2.641539189783   120.27555771   178.38387152
 C      6   5   1     2.583555688932    62.90600366    11.26825205
 H      7   2   1     2.083252261765   110.93358640   115.31166842
 H      8   1   2     2.078259343310   108.81030495   240.85113706
 H      9   7   2     2.078178034675   107.81910535    40.75834429
 H      9   7   2     2.074784704200   110.19212067   285.32802865
 H     14  11   1     2.053312623803   119.14769338   358.66543943
 H     15  12   8     2.057666172647   119.57479468     2.88053983
 H      2   1   3     1.832795782707   132.60604857    44.69337569
 H     16  12   8     2.052685359559   120.07378512   359.03839936
 H     17  13   3     2.053660808814   121.61106978     0.33793386
 H     20  16  12     2.058356890494   119.82639568   180.15379210
 H      3   1   2     1.833018951823   139.69732622   182.39005024
 H      4   1   2     1.833009269553    79.89344882   181.24206389
 H      5   1   2     1.833339680004    67.78733017   111.32314389
 H      6   5   1     1.833448169897   171.11113661    10.57334052

------------------------------------------------------------------------------
                   ___                                                        
                  /   \      - P O W E R E D   B Y -                         
                 /     \                                                     
                 |  |  |   _    _      __       _____    __    __             
                 |  |  |  | |  | |    /  \     |  _  \  |  |  /  |          
                  \  \/   | |  | |   /    \    | | | |  |  | /  /          
                 / \  \   | |__| |  /  /\  \   | |_| |  |  |/  /          
                |  |  |   |  __  | /  /__\  \  |    /   |      \           
                |  |  |   | |  | | |   __   |  |    \   |  |\   \          
                \     /   | |  | | |  |  |  |  | |\  \  |  | \   \       
                 \___/    |_|  |_| |__|  |__|  |_| \__\ |__|  \__/        
                                                                              
                      - O R C A' S   B I G   F R I E N D -                    
                                      &                                       
                       - I N T E G R A L  F E E D E R -                       
                                                                              
 v1 FN, 2020, v2 2021, v3 2022-2024                                           
------------------------------------------------------------------------------


----------------------
SHARK INTEGRAL PACKAGE
----------------------

Number of atoms                             ...     35
Number of basis functions                   ...    322
Number of shells                            ...    154
Maximum angular momentum                    ...      2
Integral batch strategy                     ... SHARK/LIBINT Hybrid
RI-J (if used) integral strategy            ... SPLIT-RIJ (Revised 2003 algorithm where possible)
Printlevel                                  ...      1
Contraction scheme used                     ... SEGMENTED contraction
Prescreening option                         ... SCHWARTZ
   Thresh                                   ... 2.500e-11
   Tcut                                     ... 2.500e-12
   Tpresel                                  ... 2.500e-12 
Coulomb Range Separation                    ... NOT USED
Exchange Range Separation                   ... NOT USED
Multipole approximations                    ... NOT USED
Finite Nucleus Model                        ... NOT USED
CABS basis                                  ... NOT available
Auxiliary Coulomb fitting basis             ... AVAILABLE
   # of basis functions in Aux-J            ...   1183
   # of shells in Aux-J                     ...    385
   Maximum angular momentum in Aux-J        ...      4
Auxiliary J/K fitting basis                 ... NOT available
Auxiliary Correlation fitting basis         ... NOT available
Auxiliary 'external' fitting basis          ... NOT available

Checking pre-screening integrals            ... done (  0.0 sec) Dimension = 154
   => SHARK Basis and OBASIS are compatible. Storing Pre-screening
Shell pair information
Shell pair cut-off parameter TPreSel        ...   2.5e-12
Total number of shell pairs                 ...     11935
Shell pairs after pre-screening             ...      8452
Total number of primitive shell pairs       ...     69489
Primitive shell pairs kept                  ...     27582
          la=0 lb=0:   2820 shell pairs
          la=1 lb=0:   2885 shell pairs
          la=1 lb=1:    743 shell pairs
          la=2 lb=0:   1211 shell pairs
          la=2 lb=1:    651 shell pairs
          la=2 lb=2:    142 shell pairs

Checking whether 4 symmetric matrices of dimension 322 fit in memory
:Max Core in MB      =   4096.00
 MB in use           =     15.95
 MB left             =   4080.05
 MB needed           =      1.59
 Data fit in memory  = YES
Calculating RI/J V-Matrix + Cholesky decomp.... done (  0.3 sec)
Calculating Nuclear repulsion               ... done (  0.0 sec) ENN=   1638.087112358355 Eh

Diagonalization of the overlap matrix:
Smallest eigenvalue                        ... 3.992e-04
Time for diagonalization                   ...    0.009 sec
Threshold for overlap eigenvalues          ... 1.000e-07
Number of eigenvalues below threshold      ... 0
Time for construction of square roots      ...    0.019 sec
Total time needed                          ...    0.049 sec

-------------------
DFT GRID GENERATION
-------------------

General Integration Accuracy     IntAcc      ... 4.388
Radial Grid Type                 RadialGrid  ... OptM3 with GC (2021)
Angular Grid (max. ang.)         AngularGrid ... 4 (Lebedev-302)
Angular grid pruning method      GridPruning ... 4 (adaptive)
Weight generation scheme         WeightScheme... mBecke (2022)
Basis function cutoff            BFCut       ... 1.0000e-11
Integration weight cutoff        WCut        ... 1.0000e-14
Partially contracted basis set               ... off
Rotationally invariant grid construction     ... off
Angular grids for H and He will be reduced by one unit

Total number of grid points                  ...   170413
Total number of batches                      ...     2678
Average number of points per batch           ...       63
Average number of grid points per atom       ...     4869

--------------------
COSX GRID GENERATION
--------------------

GRIDX 1
-------
General Integration Accuracy     IntAcc      ... 3.816
Radial Grid Type                 RadialGrid  ... OptM3 with GC (2021)
Angular Grid (max. ang.)         AngularGrid ... 1 (Lebedev-50)
Angular grid pruning method      GridPruning ... 4 (adaptive)
Weight generation scheme         WeightScheme... mBecke (2022)
Basis function cutoff            BFCut       ... 1.0000e-11
Integration weight cutoff        WCut        ... 1.0000e-14
Partially contracted basis set               ... on
Rotationally invariant grid construction     ... off
Angular grids for H and He will be reduced by one unit

Total number of grid points                  ...    21680
Total number of batches                      ...      191
Average number of points per batch           ...      113
Average number of grid points per atom       ...      619
UseSFitting                                  ... on

GRIDX 2
-------
General Integration Accuracy     IntAcc      ... 4.020
Radial Grid Type                 RadialGrid  ... OptM3 with GC (2021)
Angular Grid (max. ang.)         AngularGrid ... 2 (Lebedev-110)
Angular grid pruning method      GridPruning ... 4 (adaptive)
Weight generation scheme         WeightScheme... mBecke (2022)
Basis function cutoff            BFCut       ... 1.0000e-11
Integration weight cutoff        WCut        ... 1.0000e-14
Partially contracted basis set               ... on
Rotationally invariant grid construction     ... off
Angular grids for H and He will be reduced by one unit

Total number of grid points                  ...    47478
Total number of batches                      ...      389
Average number of points per batch           ...      122
Average number of grid points per atom       ...     1357
UseSFitting                                  ... on

GRIDX 3
-------
General Integration Accuracy     IntAcc      ... 4.338
Radial Grid Type                 RadialGrid  ... OptM3 with GC (2021)
Angular Grid (max. ang.)         AngularGrid ... 3 (Lebedev-194)
Angular grid pruning method      GridPruning ... 4 (adaptive)
Weight generation scheme         WeightScheme... mBecke (2022)
Basis function cutoff            BFCut       ... 1.0000e-11
Integration weight cutoff        WCut        ... 1.0000e-14
Partially contracted basis set               ... on
Rotationally invariant grid construction     ... off
Angular grids for H and He will be reduced by one unit

Total number of grid points                  ...   104071
Total number of batches                      ...      832
Average number of points per batch           ...      125
Average number of grid points per atom       ...     2973
UseSFitting                                  ... on
Grids setup in   6.2 sec
Initializing property integral containers    ... done (  0.0 sec)

SHARK setup successfully completed in   7.1 seconds

Maximum memory used throughout the entire STARTUP-calculation: 72.9 MB
Occupation numbers will be reassigned to an Aufbau configuration
             **** ENERGY FILE WAS UPDATED (Catechin.en.tmp) ****
Finished Guess after   0.7 sec
Maximum memory used throughout the entire GUESS-calculation: 26.1 MB
----------------------------------------D-I-I-S--------------------------------------------
Iteration    Energy (Eh)           Delta-E    RMSDP     MaxDP     DIISErr   Damp  Time(sec)
-------------------------------------------------------------------------------------------
               ***  Starting incremental Fock matrix formation  ***
    1    -1030.7323140005389632     0.00e+00  1.61e-04  4.41e-03  2.77e-02  0.700  18.2
    2    -1030.7346091312863336    -2.30e-03  1.54e-04  3.97e-03  2.22e-02  0.700   8.9
                               ***Turning on AO-DIIS***
    3    -1030.7364564665842863    -1.85e-03  1.32e-04  3.39e-03  1.68e-02  0.700   9.5
    4    -1030.7378339103931921    -1.38e-03  3.43e-04  8.69e-03  1.23e-02  0.000  10.1
                              *** Initializing SOSCF ***
---------------------------------------S-O-S-C-F--------------------------------------
Iteration    Energy (Eh)           Delta-E    RMSDP     MaxDP     MaxGrad    Time(sec)
--------------------------------------------------------------------------------------
    5    -1030.7413178709705335    -3.48e-03  2.32e-05  6.46e-04  6.75e-04    10.9
               *** Restarting incremental Fock matrix formation ***
    6    -1030.7413212843468955    -3.41e-06  1.57e-05  5.36e-04  1.26e-04    20.3
    7    -1030.7413228958896525    -1.61e-06  8.16e-06  3.36e-04  3.34e-05    13.5
    8    -1030.7413227629929224     1.33e-07  4.78e-06  2.04e-04  5.65e-05    12.7
    9    -1030.7413230449012644    -2.82e-07  1.08e-06  4.28e-05  6.80e-06    12.5
   10    -1030.7413230417153045     3.19e-09  6.84e-07  2.81e-05  1.28e-05     9.8
                 **** Energy Check signals convergence ****

               *****************************************************
               *                     SUCCESS                       *
               *           SCF CONVERGED AFTER  10 CYCLES          *
               *****************************************************

Recomputing exchange energy using gridx3       ... done (   29.493 sec)
Old exchange energy                            :    -26.463361828 Eh
New exchange energy                            :    -26.463390552 Eh
Exchange energy change after final integration :     -0.000028724 Eh
Total energy after final integration           :  -1030.741351769 Eh
             **** ENERGY FILE WAS UPDATED (Catechin.en.tmp) ****

----------------
TOTAL SCF ENERGY
----------------

Total Energy       :      -1030.74135176874597 Eh          -28047.89811 eV

Components:
Nuclear Repulsion  :       1638.08711235835540 Eh           44574.61646 eV
Electronic Energy  :      -2668.82843540334761 Eh          -72622.51378 eV
One Electron Energy:      -4663.20412717547515 Eh         -126892.23538 eV
Two Electron Energy:       1994.37569177212777 Eh           54269.72159 eV

Virial components:
Potential Energy   :      -2055.63553640160262 Eh          -55936.68671 eV
Kinetic Energy     :       1024.89418463285642 Eh           27888.78860 eV
Virial Ratio       :          2.00570514227084

DFT components:
N(Alpha)           :       75.999991827781 electrons
N(Beta)            :       75.999991827781 electrons
N(Total)           :      151.999983655563 electrons
E(X)               :     -105.194640765388 Eh       
E(C)               :       -6.207591150762 Eh       
E(XC)              :     -111.402231916150 Eh       

---------------
SCF CONVERGENCE
---------------

  Last Energy change         ...   -3.1860e-09  Tolerance :   1.0000e-08
  Last MAX-Density change    ...    2.8107e-05  Tolerance :   1.0000e-07
  Last RMS-Density change    ...    6.8354e-07  Tolerance :   5.0000e-09
  Last DIIS Error            ...    6.7457e-04  Tolerance :   5.0000e-07
  Last Orbital Gradient      ...    1.2832e-05  Tolerance :   1.0000e-05
  Last Orbital Rotation      ...    2.2748e-05  Tolerance :   1.0000e-05


Total SCF time: 0 days 0 hours 2 min 47 sec 
Finished LeanSCF after 168.1 sec

Maximum memory used throughout the entire LEANSCF-calculation: 50.3 MB

------------------------------------------------------------------------------
                         ORCA PROPERTY INTEGRAL CALCULATIONS
------------------------------------------------------------------------------

GBWName                                   ... Catechin.gbw
Number of atoms                           ...     35
Number of basis functions                 ...    322
Max core memory                           ...   4096 MB

Dipole integrals                          ... YES
Quadrupole integrals                      ...  NO
Linear momentum integrals                 ...  NO
Angular momentum integrals                ...  NO
Higher moments length integrals           ...  NO
Higher moments velocity integrals         ...  NO
Kinetic energy integrals                  ...  NO
GIAO right hand sides                     ...  NO
GIAO dipole derivative integrals          ...  NO
SOC integrals                             ...  NO
EPR diamagnetic integrals (GIAO)          ...  NO
EPR gauge integrals                       ...  NO
Field gradient integrals                  ...  NO (   0 nuclei)
Spin-dipole/Fermi contact integrals       ...  NO (   0 nuclei)
Contact density integrals                 ...  NO (   0 nuclei)
Nucleus-orbit integrals                   ...  NO (   0 nuclei)
Geometric perturbations                   ...  NO (  35 nuclei)

Choice of electric origin   ... Center of mass
Position of electric origin ... ( -0.0078,  0.0014,  0.0540) 
Choice of magnetic origin   ... GIAO
Position of magnetic origin ... (  0.0000,  0.0000,  0.0000) 

Calculating integrals                     ... Electric Dipole (Length)     done (  0.1 sec)

Property integrals calculated in   0.1 sec

Maximum memory used throughout the entire PROPINT-calculation: 25.9 MB

-------------------------   --------------------
FINAL SINGLE POINT ENERGY     -1030.741351768746
-------------------------   --------------------

------------------------------------------------------------------------------
                         ORCA SCF GRADIENT CALCULATION
------------------------------------------------------------------------------

Nuc. rep. gradient        (SHARK) ... done (  0.0 sec)
HCore & Overlap gradient  (SHARK) ... done (  1.0 sec)
Split-RIJ-J gradient      (SHARK) ... done (  5.0 sec)
COSX-gradient                     ... done ( 67.0 sec)
XC gradient                       ... done ( 15.5 sec)

------------------
CARTESIAN GRADIENT
------------------

   1   O   :    0.000468438   -0.000232349    0.000195313
   2   O   :   -0.000664662   -0.000007340   -0.001227214
   3   O   :   -0.000419933   -0.000275219    0.000118995
   4   O   :    0.000143454    0.000249983    0.000061009
   5   O   :   -0.000701101    0.000223484    0.000038104
   6   O   :   -0.000262228    0.000386447    0.000722483
   7   C   :    0.001131166    0.001316748   -0.000107892
   8   C   :   -0.001935800   -0.001968834    0.000491478
   9   C   :    0.000035772   -0.000549269    0.000533584
  10   C   :    0.000578264    0.000131497   -0.000067335
  11   C   :    0.000354013    0.001023630    0.000104669
  12   C   :    0.000179978    0.000379110   -0.000087265
  13   C   :    0.000111046   -0.000098995   -0.000057826
  14   C   :   -0.000745661   -0.000318840   -0.000196582
  15   C   :    0.000279531   -0.001348708   -0.001527746
  16   C   :    0.000024941    0.000584003    0.000051907
  17   C   :    0.000123807    0.000277255   -0.000011965
  18   C   :    0.000317716    0.000412791    0.000055059
  19   C   :    0.000246237    0.000242043    0.000612837
  20   C   :    0.000759617   -0.000139864   -0.000077158
  21   C   :   -0.000416017    0.000072666   -0.000078311
  22   H   :    0.000370193   -0.000127089    0.000228639
  23   H   :   -0.000243933   -0.000232534    0.000019935
  24   H   :   -0.000041385   -0.000107630    0.000043386
  25   H   :   -0.000095456   -0.000145156   -0.000108773
  26   H   :    0.000130995    0.000135497    0.000016473
  27   H   :   -0.000061174    0.000165866    0.000290333
  28   H   :   -0.000139889    0.000360493    0.000465870
  29   H   :    0.000031426   -0.000002780    0.000000886
  30   H   :    0.000077953   -0.000051144    0.000015713
  31   H   :    0.000127857   -0.000132831   -0.000175949
  32   H   :   -0.000055394    0.000089278   -0.000107768
  33   H   :    0.000004761   -0.000113173   -0.000029398
  34   H   :    0.000122190   -0.000101074   -0.000077447
  35   H   :    0.000163279   -0.000097962   -0.000128044

Difference to translation invariance:
           :   -0.0000000001    0.0000000000    0.0000000001

Difference to rotation invariance:
           :   -0.0000618656   -0.0000575107    0.0000746658

Norm of the Cartesian gradient     ...    0.0050132665
RMS gradient                       ...    0.0004892447
MAX gradient                       ...    0.0019688339

-------
TIMINGS
-------

Total SCF gradient time     ....       88.462 sec

Densities                   ....       0.002 sec  (  0.0%)
One electron gradient       ....       0.992 sec  (  1.1%)
RI-J Coulomb gradient       ....       5.003 sec  (  5.7%)
COSX gradient               ....      66.973 sec  ( 75.7%)
XC gradient                 ....      15.488 sec  ( 17.5%)

Maximum memory used throughout the entire SCFGRAD-calculation: 56.7 MB
------------------------------------------------------------------------------
                         ORCA GEOMETRY RELAXATION STEP
------------------------------------------------------------------------------

Reading the OPT-File                    .... done
Getting information on internals        .... done
Copying old internal coords+grads       .... done
Making the new internal coordinates     .... (2022 redundants) done
Validating the new internal coordinates .... (2022 redundants) done
Calculating the B-matrix                .... done
Calculating the G,G- and P matrices     .... done
Transforming gradient to internals      .... done
Projecting the internal gradient        .... done
Number of atoms                         ....  35
Number of internal coordinates          .... 183
Current Energy                          .... -1030.741351769 Eh
Current gradient norm                   ....     0.005013267 Eh/bohr
Maximum allowed component of the step   ....  0.300
Current trust radius                    ....  0.450
Updating the Hessian (BFGS)             .... done
Forming the augmented Hessian           .... done
Diagonalizing the augmented Hessian     .... done
Last element of RFO vector              ....  0.970907826
Lowest eigenvalues of augmented Hessian:
 -0.000320505  0.004444289  0.014979254  0.017302236  0.019354436
Length of the computed step             ....  0.246628490
The final length of the internal step   ....  0.246628490
Converting the step to Cartesian space:
 Initial RMS(Int)=    0.0182313025
Transforming coordinates:
 Iter   0:  RMS(Cart)=    0.1045737324 RMS(Int)=    0.8045865549
 Iter   5:  RMS(Cart)=    0.0000001279 RMS(Int)=    0.0000000499
done
Storing new coordinates                 .... done
The predicted energy change is          ....    -0.000170000
Previously predicted energy change      ....    -0.000200638
Actually observed energy change         ....    -0.000293576
Ratio of predicted to observed change   ....     1.463214488
New trust radius                        ....     0.450000000

                                .--------------------.
          ----------------------|Geometry convergence|-------------------------
          Item                value                   Tolerance       Converged
          ---------------------------------------------------------------------
          Energy change      -0.0002935761            0.0000050000      NO
          RMS gradient        0.0003086334            0.0001000000      NO
          MAX gradient        0.0012506237            0.0003000000      NO
          RMS step            0.0182313025            0.0020000000      NO
          MAX step            0.1126723050            0.0040000000      NO
          -------------------------------------------------------------------------
          ........................................................
          Max(Bonds)      0.0039      Max(Angles)    0.32
          Max(Dihed)        6.46      Max(Improp)    0.00
          ---------------------------------------------------------------------

The optimization has not yet converged - more geometry cycles are needed


    ---------------------------------------------------------------------------
                         Redundant Internal Coordinates
                            (Angstroem and degrees)

        Definition                    Value    dE/dq     Step     New-Value
    ----------------------------------------------------------------------------
     1. B(C   6,O   1)                1.4228  0.000392 -0.0015    1.4213   
     2. B(C   7,O   0)                1.4441  0.000703 -0.0011    1.4430   
     3. B(C   7,C   6)                1.5363 -0.001057  0.0039    1.5403   
     4. B(C   8,C   6)                1.5327  0.000228 -0.0009    1.5318   
     5. B(C   9,C   8)                1.5114  0.000933 -0.0020    1.5094   
     6. B(C  10,C   9)                1.3999  0.000308 -0.0003    1.3996   
     7. B(C  10,O   0)                1.3683  0.000147 -0.0006    1.3677   
     8. B(C  11,C   7)                1.5087 -0.000463 -0.0002    1.5085   
     9. B(C  12,C   9)                1.4051 -0.000245  0.0010    1.4061   
    10. B(C  12,O   2)                1.3703 -0.000035  0.0004    1.3708   
    11. B(C  13,C  10)                1.4010 -0.000053  0.0003    1.4012   
    12. B(C  14,C  11)                1.4021 -0.000784  0.0014    1.4035   
    13. B(C  15,C  11)                1.3927 -0.000488  0.0002    1.3929   
    14. B(C  16,C  12)                1.3946  0.000580 -0.0014    1.3932   
    15. B(C  17,O   3)                1.3680  0.000197 -0.0002    1.3677   
    16. B(C  17,C  16)                1.4000  0.000373  0.0001    1.4002   
    17. B(C  17,C  13)                1.3939  0.000545 -0.0010    1.3929   
    18. B(C  18,C  14)                1.3920  0.000394 -0.0014    1.3906   
    19. B(C  18,O   4)                1.3679  0.000238 -0.0006    1.3673   
    20. B(C  19,C  15)                1.3978 -0.000235  0.0005    1.3983   
    21. B(C  20,C  19)                1.3939  0.000666 -0.0016    1.3923   
    22. B(C  20,C  18)                1.4106 -0.000178  0.0022    1.4128   
    23. B(C  20,O   5)                1.3672  0.000255 -0.0007    1.3664   
    24. B(H  21,C   6)                1.1024  0.000131 -0.0000    1.1024   
    25. B(H  22,C   7)                1.0998 -0.000014  0.0002    1.1000   
    26. B(H  23,C   8)                1.0997  0.000011  0.0001    1.0998   
    27. B(H  24,C   8)                1.0979 -0.000018 -0.0000    1.0979   
    28. B(H  25,C  13)                1.0866  0.000051 -0.0002    1.0864   
    29. B(H  26,C  14)                1.0889  0.000212 -0.0005    1.0884   
    30. B(H  27,O   1)                0.9699 -0.000034  0.0001    0.9700   
    31. B(H  28,C  15)                1.0862  0.000010 -0.0001    1.0861   
    32. B(H  29,C  16)                1.0868  0.000080 -0.0002    1.0865   
    33. B(H  30,C  19)                1.0892  0.000076  0.0001    1.0893   
    34. B(H  31,O   2)                0.9700 -0.000056  0.0001    0.9701   
    35. B(H  32,O   3)                0.9700 -0.000090  0.0002    0.9702   
    36. B(H  33,O   4)                0.9702  0.000026  0.0002    0.9703   
    37. B(H  34,O   5)                0.9702  0.000044  0.0001    0.9703   
    38. A(C   7,O   0,C  10)          118.28  0.000844   -0.05    118.23   
    39. A(C   6,O   1,H  27)          107.53 -0.000601    0.32    107.85   
    40. A(C  12,O   2,H  31)          108.66 -0.000185    0.09    108.75   
    41. A(C  17,O   3,H  32)          108.62 -0.000121    0.04    108.66   
    42. A(C  18,O   4,H  33)          108.17 -0.000313    0.04    108.20   
    43. A(C  20,O   5,H  34)          108.21 -0.000412    0.08    108.29   
    44. A(O   1,C   6,C   8)          111.79  0.000674   -0.13    111.67   
    45. A(C   8,C   6,H  21)          109.81 -0.000562    0.20    110.00   
    46. A(C   7,C   6,C   8)          110.06  0.000690   -0.26    109.80   
    47. A(O   1,C   6,C   7)          106.35 -0.001251    0.25    106.60   
    48. A(C   7,C   6,H  21)          107.77  0.000217   -0.30    107.47   
    49. A(O   1,C   6,H  21)          110.93  0.000219    0.22    111.16   
    50. A(C   6,C   7,C  11)          114.32  0.000919   -0.23    114.09   
    51. A(C  11,C   7,H  22)          109.31 -0.000367    0.25    109.56   
    52. A(C   6,C   7,H  22)          107.64 -0.000062   -0.18    107.46   
    53. A(O   0,C   7,C  11)          107.28 -0.000150    0.10    107.38   
    54. A(O   0,C   7,H  22)          108.81  0.000234    0.04    108.85   
    55. A(O   0,C   7,C   6)          109.39 -0.000591    0.03    109.42   
    56. A(C   6,C   8,C   9)          111.10 -0.000226   -0.01    111.09   
    57. A(C   9,C   8,H  24)          110.27  0.000319   -0.22    110.05   
    58. A(C   6,C   8,H  24)          110.19  0.000018    0.14    110.33   
    59. A(C   9,C   8,H  23)          111.17  0.000110    0.21    111.38   
    60. A(C   6,C   8,H  23)          107.82 -0.000048   -0.14    107.67   
    61. A(H  23,C   8,H  24)          106.14 -0.000176    0.03    106.17   
    62. A(C   8,C   9,C  10)          120.86 -0.000100    0.07    120.93   
    63. A(C  10,C   9,C  12)          117.21 -0.000059   -0.11    117.11   
    64. A(C   8,C   9,C  12)          121.92  0.000159    0.03    121.96   
    65. A(C   9,C  10,C  13)          122.01  0.000214    0.06    122.07   
    66. A(O   0,C  10,C  13)          115.74  0.000268   -0.09    115.66   
    67. A(O   0,C  10,C   9)          122.24 -0.000482    0.02    122.26   
    68. A(C  14,C  11,C  15)          118.77 -0.000093    0.05    118.82   
    69. A(C   7,C  11,C  15)          120.83  0.000118    0.04    120.87   
    70. A(C   7,C  11,C  14)          120.39 -0.000023   -0.09    120.30   
    71. A(O   2,C  12,C   9)          116.04 -0.000589   -0.06    115.98   
    72. A(C   9,C  12,C  16)          122.14  0.000050    0.07    122.22   
    73. A(O   2,C  12,C  16)          121.82  0.000539   -0.02    121.80   
    74. A(C  17,C  13,H  25)          121.82 -0.000177    0.12    121.94   
    75. A(C  10,C  13,H  25)          119.15  0.000197   -0.07    119.08   
    76. A(C  10,C  13,C  17)          119.03 -0.000019   -0.05    118.98   
    77. A(C  11,C  14,C  18)          121.44  0.000495   -0.05    121.39   
    78. A(C  11,C  14,H  26)          119.57  0.000026    0.00    119.58   
    79. A(C  18,C  14,H  26)          118.96 -0.000521    0.04    119.00   
    80. A(C  11,C  15,C  19)          120.28  0.000044   -0.06    120.22   
    81. A(C  19,C  15,H  28)          119.65  0.000009    0.05    119.70   
    82. A(C  11,C  15,H  28)          120.07 -0.000052    0.00    120.08   
    83. A(C  17,C  16,H  29)          119.46  0.000038    0.02    119.48   
    84. A(C  12,C  16,H  29)          121.61 -0.000066    0.02    121.63   
    85. A(C  12,C  16,C  17)          118.93  0.000028   -0.04    118.88   
    86. A(C  13,C  17,C  16)          120.67 -0.000213    0.06    120.73   
    87. A(O   3,C  17,C  16)          116.94  0.000104   -0.12    116.82   
    88. A(O   3,C  17,C  13)          122.39  0.000109    0.06    122.45   
    89. A(C  14,C  18,C  20)          119.48 -0.000285    0.01    119.48   
    90. A(O   4,C  18,C  20)          117.00 -0.000401   -0.10    116.90   
    91. A(O   4,C  18,C  14)          123.52  0.000686    0.10    123.62   
    92. A(C  20,C  19,H  30)          119.19  0.000157   -0.26    118.92   
    93. A(C  15,C  19,H  30)          119.83 -0.000340    0.21    120.04   
    94. A(C  15,C  19,C  20)          120.99  0.000183    0.05    121.04   
    95. A(O   5,C  20,C  18)          117.14 -0.000422   -0.09    117.05   
    96. A(C  18,C  20,C  19)          119.05 -0.000343    0.00    119.05   
    97. A(O   5,C  20,C  19)          123.81  0.000765    0.09    123.90   
    98. D(C   8,C   6,O   1,H  27)     63.39  0.000122   -2.23     61.16   
    99. D(H  21,C   6,O   1,H  27)    -59.54  0.000208   -2.57    -62.11   
   100. D(C   7,C   6,O   1,H  27)   -176.46  0.000557   -2.47   -178.93   
   101. D(O   0,C   7,C   6,O   1)    178.17 -0.000239   -0.07    178.10   
   102. D(C  11,C   7,O   0,C  10)    170.93  0.000438   -0.34    170.58   
   103. D(H  22,C   7,O   0,C  10)    -70.93  0.000046    0.03    -70.90   
   104. D(C  11,C   7,C   6,O   1)     57.87 -0.000232   -0.06     57.81   
   105. D(O   0,C   7,C   6,C   8)    -60.56  0.000207   -0.22    -60.78   
   106. D(C  11,C   7,C   6,H  21)    -61.15  0.000062   -0.30    -61.44   
   107. D(C  11,C   7,C   6,C   8)    179.13  0.000213   -0.21    178.92   
   108. D(C   6,C   7,O   0,C  10)     46.41 -0.000228   -0.15     46.26   
   109. D(O   0,C   7,C   6,H  21)     59.16  0.000055   -0.31     58.85   
   110. D(C   9,C   8,C   6,H  21)    -73.62 -0.000042    0.71    -72.92   
   111. D(C   9,C   8,C   6,O   1)    162.80 -0.000390    0.37    163.18   
   112. D(C   9,C   8,C   6,C   7)     44.85  0.000300    0.31     45.16   
   113. D(H  23,C   8,C   6,O   1)     40.76 -0.000353    0.21     40.97   
   114. D(H  23,C   8,C   6,C   7)    -77.19  0.000336    0.14    -77.05   
   115. D(H  23,C   8,C   6,H  21)    164.33 -0.000006    0.54    164.88   
   116. D(C  12,C   9,C   8,C   6)    163.59  0.000123   -0.52    163.07   
   117. D(C  10,C   9,C   8,H  23)    104.38 -0.000031   -0.26    104.12   
   118. D(C  10,C   9,C   8,H  24)   -138.18  0.000019   -0.23   -138.40   
   119. D(C  12,C   9,C   8,H  23)    -76.33 -0.000016   -0.57    -76.90   
   120. D(C  10,C   9,C   8,C   6)    -15.70  0.000108   -0.21    -15.91   
   121. D(C  13,C  10,C   9,C  12)     -0.62  0.000034    0.01     -0.61   
   122. D(C  13,C  10,C   9,C   8)    178.70  0.000050   -0.28    178.41   
   123. D(O   0,C  10,C   9,C  12)   -179.37  0.000016    0.03   -179.34   
   124. D(O   0,C  10,C   9,C   8)     -0.05  0.000032   -0.26     -0.31   
   125. D(C  13,C  10,O   0,C   7)    164.82  0.000002    0.43    165.25   
   126. D(C   9,C  10,O   0,C   7)    -16.36  0.000019    0.41    -15.95   
   127. D(C  14,C  11,C   7,C   6)     73.73 -0.000553    5.59     79.32   
   128. D(C  14,C  11,C   7,O   0)    -47.74 -0.000283    5.63    -42.11   
   129. D(C  15,C  11,C   7,C   6)   -105.12 -0.000639    6.42    -98.69   
   130. D(C  15,C  11,C   7,O   0)    133.41 -0.000369    6.46    139.87   
   131. D(C  14,C  11,C   7,H  22)   -165.57 -0.000281    5.40   -160.17   
   132. D(C  16,C  12,C   9,C  10)      0.58 -0.000013   -0.02      0.56   
   133. D(C  16,C  12,C   9,C   8)   -178.73 -0.000028    0.28   -178.45   
   134. D(O   2,C  12,C   9,C  10)   -179.78 -0.000018    0.02   -179.76   
   135. D(O   2,C  12,C   9,C   8)      0.91 -0.000032    0.31      1.22   
   136. D(C  16,C  12,O   2,H  31)      0.44 -0.000088    0.54      0.98   
   137. D(C   9,C  12,O   2,H  31)   -179.19 -0.000081    0.50   -178.69   
   138. D(H  25,C  13,C  10,C   9)    179.84 -0.000007   -0.09    179.75   
   139. D(C  17,C  13,C  10,O   0)    179.01 -0.000034   -0.00    179.00   
   140. D(C  17,C  13,C  10,C   9)      0.18 -0.000042    0.02      0.20   
   141. D(H  25,C  13,C  10,O   0)     -1.33  0.000001   -0.11     -1.44   
   142. D(H  26,C  14,C  11,C  15)   -178.25  0.000038   -0.16   -178.41   
   143. D(H  26,C  14,C  11,C   7)      2.88 -0.000048    0.65      3.53   
   144. D(C  18,C  14,C  11,C  15)      0.06  0.000010   -0.21     -0.15   
   145. D(C  18,C  14,C  11,C   7)   -178.81 -0.000076    0.60   -178.21   
   146. D(H  28,C  15,C  11,C  14)   -179.83 -0.000024    0.22   -179.60   
   147. D(H  28,C  15,C  11,C   7)     -0.96  0.000061   -0.59     -1.55   
   148. D(C  19,C  15,C  11,C  14)     -0.48 -0.000022    0.21     -0.27   
   149. D(C  19,C  15,C  11,C   7)    178.38  0.000063   -0.61    177.78   
   150. D(H  29,C  16,C  12,C   9)    179.96 -0.000008    0.06    180.02   
   151. D(H  29,C  16,C  12,O   2)      0.34  0.000001    0.03      0.36   
   152. D(C  17,C  16,C  12,C   9)     -0.10 -0.000001    0.00     -0.10   
   153. D(C  17,C  16,C  12,O   2)   -179.72  0.000007   -0.03   -179.75   
   154. D(C  16,C  17,C  13,H  25)   -179.32 -0.000012    0.08   -179.25   
   155. D(C  16,C  17,C  13,C  10)      0.33  0.000026   -0.04      0.29   
   156. D(O   3,C  17,C  13,H  25)      0.30 -0.000009    0.06      0.37   
   157. D(O   3,C  17,C  13,C  10)    179.96  0.000028   -0.05    179.90   
   158. D(C  16,C  17,O   3,H  32)    179.38 -0.000030    0.21    179.58   
   159. D(O   3,C  17,C  16,C  12)    179.99 -0.000007    0.04    180.02   
   160. D(C  13,C  17,O   3,H  32)     -0.26 -0.000031    0.22     -0.04   
   161. D(C  13,C  17,C  16,H  29)    179.58  0.000002   -0.03    179.54   
   162. D(C  13,C  17,C  16,C  12)     -0.37 -0.000005    0.02     -0.34   
   163. D(O   3,C  17,C  16,H  29)     -0.07 -0.000001   -0.02     -0.09   
   164. D(C  20,C  18,C  14,H  26)    178.71 -0.000015    0.06    178.77   
   165. D(C  20,C  18,C  14,C  11)      0.39  0.000004    0.11      0.51   
   166. D(O   4,C  18,C  14,H  26)     -1.09 -0.000002    0.01     -1.07   
   167. D(O   4,C  18,C  14,C  11)   -179.41  0.000016    0.07   -179.34   
   168. D(C  20,C  18,O   4,H  33)   -179.64 -0.000026    0.22   -179.42   
   169. D(C  14,C  18,O   4,H  33)      0.16 -0.000038    0.27      0.43   
   170. D(H  30,C  19,C  15,H  28)     -0.50  0.000021   -0.13     -0.63   
   171. D(H  30,C  19,C  15,C  11)   -179.85  0.000019   -0.11   -179.96   
   172. D(C  20,C  19,C  15,H  28)    179.80  0.000022   -0.12    179.68   
   173. D(C  20,C  19,C  15,C  11)      0.45  0.000020   -0.10      0.35   
   174. D(C  18,C  20,C  19,H  30)   -179.70 -0.000003    0.01   -179.69   
   175. D(C  18,C  20,C  19,C  15)      0.01 -0.000005    0.00      0.01   
   176. D(O   5,C  20,C  19,H  30)     -0.05  0.000003   -0.02     -0.08   
   177. D(O   5,C  20,C  19,C  15)    179.65  0.000001   -0.03    179.62   
   178. D(C  19,C  20,C  18,C  14)     -0.42 -0.000004   -0.00     -0.43   
   179. D(C  19,C  20,C  18,O   4)    179.39 -0.000013    0.04    179.43   
   180. D(O   5,C  20,C  18,C  14)    179.91 -0.000013    0.02    179.94   
   181. D(O   5,C  20,C  18,O   4)     -0.28 -0.000023    0.07     -0.21   
   182. D(C  19,C  20,O   5,H  34)      0.38  0.000002   -0.01      0.36   
   183. D(C  18,C  20,O   5,H  34)   -179.97  0.000007   -0.05   -180.02   
    ----------------------------------------------------------------------------

Geometry step timings:
Preparation and reading OPT file:      0.003 s ( 2.479 %)
Internal coordinates            :      0.004 s ( 3.004 %)
B/P matrices and projection     :      0.007 s ( 5.411 %)
Hessian update/contruction      :      0.022 s (16.079 %)
Making the step                 :      0.007 s ( 4.861 %)
Converting the step to Cartesian:      0.003 s ( 1.928 %)
Storing new data                :      0.003 s ( 2.574 %)
Checking convergence            :      0.005 s ( 3.939 %)
Final printing                  :      0.081 s (59.723 %)
Total time                      :      0.135 s

Time for energy+gradient        :    265.469 s
Time for complete geometry iter :    265.849 s

         *************************************************************
         *                GEOMETRY OPTIMIZATION CYCLE   5            *
         *************************************************************
---------------------------------
CARTESIAN COORDINATES (ANGSTROEM)
---------------------------------
  O      0.425815    0.642687   -0.232729
  O     -0.704736   -2.824071   -0.189126
  O      4.386364   -1.981638    0.260240
  O      4.658364    2.783032    0.208756
  O     -4.077207    1.556769    1.874938
  O     -5.840441    0.737965    0.070037
  C      0.108692   -1.730551    0.214215
  C     -0.334810   -0.518635   -0.626577
  C      1.595105   -2.012490   -0.025869
  C      2.402599   -0.737760    0.010877
  C      1.779728    0.511443   -0.090545
  C     -1.795489   -0.170522   -0.482463
  C      3.799818   -0.746129    0.168334
  C      2.502094    1.710429   -0.026537
  C     -2.245100    0.547969    0.636246
  C     -2.726547   -0.588493   -1.430481
  C      4.546903    0.428003    0.234587
  C      3.884128    1.657685    0.139150
  C     -3.591399    0.849271    0.810508
  C     -4.083670   -0.298123   -1.259725
  C     -4.531119    0.415752   -0.151216
  H     -0.060949   -1.478096    1.273822
  H     -0.113131   -0.748404   -1.679187
  H      1.686346   -2.517036   -0.998884
  H      1.974870   -2.720423    0.722467
  H      1.969374    2.653100   -0.114867
  H     -1.525392    0.903135    1.371452
  H     -0.451587   -3.594840    0.342522
  H     -2.402036   -1.151386   -2.300783
  H      5.626446    0.410437    0.356106
  H     -4.809320   -0.626965   -2.002605
  H      5.341141   -1.865003    0.386343
  H      4.084264    3.560481    0.124045
  H     -3.330165    1.796796    2.445749
  H     -6.369454    0.381611   -0.661199

----------------------------
CARTESIAN COORDINATES (A.U.)
----------------------------
  NO LB      ZA    FRAG     MASS         X           Y           Z
   0 O     8.0000    0    15.999    0.804674    1.214503   -0.439794
   1 O     8.0000    0    15.999   -1.331759   -5.336722   -0.357397
   2 O     8.0000    0    15.999    8.289027   -3.744753    0.491783
   3 O     8.0000    0    15.999    8.803032    5.259168    0.394491
   4 O     8.0000    0    15.999   -7.704804    2.941868    3.543119
   5 O     8.0000    0    15.999  -11.036834    1.394552    0.132350
   6 C     6.0000    0    12.011    0.205399   -3.270268    0.404807
   7 C     6.0000    0    12.011   -0.632699   -0.980078   -1.184060
   8 C     6.0000    0    12.011    3.014312   -3.803054   -0.048885
   9 C     6.0000    0    12.011    4.540254   -1.394165    0.020554
  10 C     6.0000    0    12.011    3.363198    0.966488   -0.171105
  11 C     6.0000    0    12.011   -3.392983   -0.322240   -0.911723
  12 C     6.0000    0    12.011    7.180615   -1.409980    0.318105
  13 C     6.0000    0    12.011    4.728272    3.232242   -0.050148
  14 C     6.0000    0    12.011   -4.242624    1.035511    1.202331
  15 C     6.0000    0    12.011   -5.152428   -1.112090   -2.703217
  16 C     6.0000    0    12.011    8.592402    0.808808    0.443306
  17 C     6.0000    0    12.011    7.339939    3.132571    0.262955
  18 C     6.0000    0    12.011   -6.786761    1.604889    1.531638
  19 C     6.0000    0    12.011   -7.717018   -0.563371   -2.380535
  20 C     6.0000    0    12.011   -8.562574    0.785658   -0.285757
  21 H     1.0000    0     1.008   -0.115176   -2.793196    2.407174
  22 H     1.0000    0     1.008   -0.213786   -1.414278   -3.173204
  23 H     1.0000    0     1.008    3.186731   -4.756510   -1.887618
  24 H     1.0000    0     1.008    3.731964   -5.140854    1.365265
  25 H     1.0000    0     1.008    3.721578    5.013632   -0.217066
  26 H     1.0000    0     1.008   -2.882574    1.706679    2.591668
  27 H     1.0000    0     1.008   -0.853376   -6.793262    0.647273
  28 H     1.0000    0     1.008   -4.539190   -2.175804   -4.347851
  29 H     1.0000    0     1.008   10.632442    0.775614    0.672943
  30 H     1.0000    0     1.008   -9.088297   -1.184793   -3.784375
  31 H     1.0000    0     1.008   10.093294   -3.524346    0.730083
  32 H     1.0000    0     1.008    7.718141    6.728333    0.234411
  33 H     1.0000    0     1.008   -6.293100    3.395452    4.621797
  34 H     1.0000    0     1.008  -12.036524    0.721141   -1.249486

--------------------------------
INTERNAL COORDINATES (ANGSTROEM)
--------------------------------
 O      0   0   0     0.000000000000     0.00000000     0.00000000
 O      1   0   0     3.646705969883     0.00000000     0.00000000
 O      1   2   0     4.776615037991    74.54508399     0.00000000
 O      1   2   3     4.763449895403   134.54856637   357.80297248
 O      1   2   3     5.055196188364    83.72825736   210.67506348
 O      5   1   2     2.652754370699   104.63090917   298.82882270
 C      2   1   3     1.421315215025    25.11727553    37.99892869
 C      1   2   3     1.443030103456    22.29886507   137.49498507
 C      7   2   1     1.531846207795   111.66953598   238.41572237
 C      9   7   2     1.509414170747   111.09124383   163.17348628
 C      1   2   3     1.367669833663   102.38219685   359.69511955
 C      8   1   2     1.508487966152   107.37376163   122.45271784
 C      3   1   2     1.370753620868    31.02761164   181.46198167
 C     11   1   2     1.401240775765   115.65628637   182.06307997
 C     12   8   1     1.403527404416   120.29644860   317.88934458
 C     12   8   1     1.392948891164   120.86114764   139.86988741
 C     13   3   1     1.393238207195   121.79955994   179.49438621
 C      4   1   2     1.367732117038    28.67003966     2.57562926
 C      5   1   2     1.367324167907    42.72467867   312.16301428
 C     16  12   8     1.398303942561   120.21870689   177.77351044
 C      6   5   1     1.366418092007    63.00246326    10.00015607
 H      7   2   1     1.102397023197   111.15469160   115.15263817
 H      8   1   2     1.099964771369   108.84818834   240.97221993
 H      9   7   2     1.099841537678   107.67305759    40.96519279
 H      9   7   2     1.097906015857   110.33391336   285.50979190
 H     14  11   1     1.086379646150   119.07580137   358.55566642
 H     15  12   8     1.088416035398   119.57933829     3.53191579
 H      2   1   3     0.969957802998   132.92737298    41.56211030
 H     16  12   8     1.086085944568   120.07721253   358.44623508
 H     17  13   3     1.086502607484   121.63334572     0.36372789
 H     20  16  12     1.089300580156   120.03789340   180.03959937
 H      3   1   2     0.970105113872   139.76602617   183.64195542
 H      4   1   2     0.970150906965    79.98966868   182.06304633
 H      5   1   2     0.970314125502    66.68398678   117.64668621
 H      6   5   1     0.970334614367   171.28902405     9.22600926

---------------------------
INTERNAL COORDINATES (A.U.)
---------------------------
 O      0   0   0     0.000000000000     0.00000000     0.00000000
 O      1   0   0     6.891275574015     0.00000000     0.00000000
 O      1   2   0     9.026494268973    74.54508399     0.00000000
 O      1   2   3     9.001615754968   134.54856637   357.80297248
 O      1   2   3     9.552936349251    83.72825736   210.67506348
 O      5   1   2     5.012979261184   104.63090917   298.82882270
 C      2   1   3     2.685896506372    25.11727553    37.99892869
 C      1   2   3     2.726931698536    22.29886507   137.49498507
 C      7   2   1     2.894769812019   111.66953598   238.41572237
 C      9   7   2     2.852379405371   111.09124383   163.17348628
 C      1   2   3     2.584521427249   102.38219685   359.69511955
 C      8   1   2     2.850629132343   107.37376163   122.45271784
 C      3   1   2     2.590348940521    31.02761164   181.46198167
 C     11   1   2     2.647961313880   115.65628637   182.06307997
 C     12   8   1     2.652282415800   120.29644860   317.88934458
 C     12   8   1     2.632291922850   120.86114764   139.86988741
 C     13   3   1     2.632838650915   121.79955994   179.49438621
 C      4   1   2     2.584639125770    28.67003966     2.57562926
 C      5   1   2     2.583868213636    42.72467867   312.16301428
 C     16  12   8     2.642411503423   120.21870689   177.77351044
 C      6   5   1     2.582155978329    63.00246326    10.00015607
 H      7   2   1     2.083228464693   111.15469160   115.15263817
 H      8   1   2     2.078632174849   108.84818834   240.97221993
 H      9   7   2     2.078399296922   107.67305759    40.96519279
 H      9   7   2     2.074741690754   110.33391336   285.50979190
 H     14  11   1     2.052960008689   119.07580137   358.55566642
 H     15  12   8     2.056808226671   119.57933829     3.53191579
 H      2   1   3     1.832954609125   132.92737298    41.56211030
 H     16  12   8     2.052404993134   120.07721253   358.44623508
 H     17  13   3     2.053192371936   121.63334572     0.36372789
 H     20  16  12     2.058479774016   120.03789340   180.03959937
 H      3   1   2     1.833232986335   139.76602617   183.64195542
 H      4   1   2     1.833319522739    79.98966868   182.06304633
 H      5   1   2     1.833627961075    66.68398678   117.64668621
 H      6   5   1     1.833666679419   171.28902405     9.22600926

------------------------------------------------------------------------------
                   ___                                                        
                  /   \      - P O W E R E D   B Y -                         
                 /     \                                                     
                 |  |  |   _    _      __       _____    __    __             
                 |  |  |  | |  | |    /  \     |  _  \  |  |  /  |          
                  \  \/   | |  | |   /    \    | | | |  |  | /  /          
                 / \  \   | |__| |  /  /\  \   | |_| |  |  |/  /          
                |  |  |   |  __  | /  /__\  \  |    /   |      \           
                |  |  |   | |  | | |   __   |  |    \   |  |\   \          
                \     /   | |  | | |  |  |  |  | |\  \  |  | \   \       
                 \___/    |_|  |_| |__|  |__|  |_| \__\ |__|  \__/        
                                                                              
                      - O R C A' S   B I G   F R I E N D -                    
                                      &                                       
                       - I N T E G R A L  F E E D E R -                       
                                                                              
 v1 FN, 2020, v2 2021, v3 2022-2024                                           
------------------------------------------------------------------------------


----------------------
SHARK INTEGRAL PACKAGE
----------------------

Number of atoms                             ...     35
Number of basis functions                   ...    322
Number of shells                            ...    154
Maximum angular momentum                    ...      2
Integral batch strategy                     ... SHARK/LIBINT Hybrid
RI-J (if used) integral strategy            ... SPLIT-RIJ (Revised 2003 algorithm where possible)
Printlevel                                  ...      1
Contraction scheme used                     ... SEGMENTED contraction
Prescreening option                         ... SCHWARTZ
   Thresh                                   ... 2.500e-11
   Tcut                                     ... 2.500e-12
   Tpresel                                  ... 2.500e-12 
Coulomb Range Separation                    ... NOT USED
Exchange Range Separation                   ... NOT USED
Multipole approximations                    ... NOT USED
Finite Nucleus Model                        ... NOT USED
CABS basis                                  ... NOT available
Auxiliary Coulomb fitting basis             ... AVAILABLE
   # of basis functions in Aux-J            ...   1183
   # of shells in Aux-J                     ...    385
   Maximum angular momentum in Aux-J        ...      4
Auxiliary J/K fitting basis                 ... NOT available
Auxiliary Correlation fitting basis         ... NOT available
Auxiliary 'external' fitting basis          ... NOT available

Checking pre-screening integrals            ... done (  0.0 sec) Dimension = 154
   => SHARK Basis and OBASIS are compatible. Storing Pre-screening
Shell pair information
Shell pair cut-off parameter TPreSel        ...   2.5e-12
Total number of shell pairs                 ...     11935
Shell pairs after pre-screening             ...      8457
Total number of primitive shell pairs       ...     69489
Primitive shell pairs kept                  ...     27607
          la=0 lb=0:   2823 shell pairs
          la=1 lb=0:   2883 shell pairs
          la=1 lb=1:    743 shell pairs
          la=2 lb=0:   1215 shell pairs
          la=2 lb=1:    651 shell pairs
          la=2 lb=2:    142 shell pairs

Checking whether 4 symmetric matrices of dimension 322 fit in memory
:Max Core in MB      =   4096.00
 MB in use           =     15.96
 MB left             =   4080.04
 MB needed           =      1.59
 Data fit in memory  = YES
Calculating RI/J V-Matrix + Cholesky decomp.... done (  0.3 sec)
Calculating Nuclear repulsion               ... done (  0.0 sec) ENN=   1638.836452802965 Eh

Diagonalization of the overlap matrix:
Smallest eigenvalue                        ... 3.978e-04
Time for diagonalization                   ...    0.009 sec
Threshold for overlap eigenvalues          ... 1.000e-07
Number of eigenvalues below threshold      ... 0
Time for construction of square roots      ...    0.018 sec
Total time needed                          ...    0.045 sec

-------------------
DFT GRID GENERATION
-------------------

General Integration Accuracy     IntAcc      ... 4.388
Radial Grid Type                 RadialGrid  ... OptM3 with GC (2021)
Angular Grid (max. ang.)         AngularGrid ... 4 (Lebedev-302)
Angular grid pruning method      GridPruning ... 4 (adaptive)
Weight generation scheme         WeightScheme... mBecke (2022)
Basis function cutoff            BFCut       ... 1.0000e-11
Integration weight cutoff        WCut        ... 1.0000e-14
Partially contracted basis set               ... off
Rotationally invariant grid construction     ... off
Angular grids for H and He will be reduced by one unit

Total number of grid points                  ...   170343
Total number of batches                      ...     2678
Average number of points per batch           ...       63
Average number of grid points per atom       ...     4867

--------------------
COSX GRID GENERATION
--------------------

GRIDX 1
-------
General Integration Accuracy     IntAcc      ... 3.816
Radial Grid Type                 RadialGrid  ... OptM3 with GC (2021)
Angular Grid (max. ang.)         AngularGrid ... 1 (Lebedev-50)
Angular grid pruning method      GridPruning ... 4 (adaptive)
Weight generation scheme         WeightScheme... mBecke (2022)
Basis function cutoff            BFCut       ... 1.0000e-11
Integration weight cutoff        WCut        ... 1.0000e-14
Partially contracted basis set               ... on
Rotationally invariant grid construction     ... off
Angular grids for H and He will be reduced by one unit

Total number of grid points                  ...    21679
Total number of batches                      ...      190
Average number of points per batch           ...      114
Average number of grid points per atom       ...      619
UseSFitting                                  ... on

GRIDX 2
-------
General Integration Accuracy     IntAcc      ... 4.020
Radial Grid Type                 RadialGrid  ... OptM3 with GC (2021)
Angular Grid (max. ang.)         AngularGrid ... 2 (Lebedev-110)
Angular grid pruning method      GridPruning ... 4 (adaptive)
Weight generation scheme         WeightScheme... mBecke (2022)
Basis function cutoff            BFCut       ... 1.0000e-11
Integration weight cutoff        WCut        ... 1.0000e-14
Partially contracted basis set               ... on
Rotationally invariant grid construction     ... off
Angular grids for H and He will be reduced by one unit

Total number of grid points                  ...    47488
Total number of batches                      ...      388
Average number of points per batch           ...      122
Average number of grid points per atom       ...     1357
UseSFitting                                  ... on

GRIDX 3
-------
General Integration Accuracy     IntAcc      ... 4.338
Radial Grid Type                 RadialGrid  ... OptM3 with GC (2021)
Angular Grid (max. ang.)         AngularGrid ... 3 (Lebedev-194)
Angular grid pruning method      GridPruning ... 4 (adaptive)
Weight generation scheme         WeightScheme... mBecke (2022)
Basis function cutoff            BFCut       ... 1.0000e-11
Integration weight cutoff        WCut        ... 1.0000e-14
Partially contracted basis set               ... on
Rotationally invariant grid construction     ... off
Angular grids for H and He will be reduced by one unit

Total number of grid points                  ...   104070
Total number of batches                      ...      834
Average number of points per batch           ...      124
Average number of grid points per atom       ...     2973
UseSFitting                                  ... on
Grids setup in   6.0 sec
Initializing property integral containers    ... done (  0.0 sec)

SHARK setup successfully completed in   7.0 seconds

Maximum memory used throughout the entire STARTUP-calculation: 72.8 MB
Occupation numbers will be reassigned to an Aufbau configuration
             **** ENERGY FILE WAS UPDATED (Catechin.en.tmp) ****
Finished Guess after   0.6 sec
Maximum memory used throughout the entire GUESS-calculation: 26.1 MB
----------------------------------------D-I-I-S--------------------------------------------
Iteration    Energy (Eh)           Delta-E    RMSDP     MaxDP     DIISErr   Damp  Time(sec)
-------------------------------------------------------------------------------------------
               ***  Starting incremental Fock matrix formation  ***
    1    -1030.7243859710492870     0.00e+00  2.21e-04  6.19e-03  3.85e-02  0.700  19.4
    2    -1030.7287537842094025    -4.37e-03  2.12e-04  5.98e-03  3.08e-02  0.700   9.5
                               ***Turning on AO-DIIS***
    3    -1030.7322719453322861    -3.52e-03  1.83e-04  5.10e-03  2.33e-02  0.700   9.6
    4    -1030.7348963136887505    -2.62e-03  4.74e-04  1.30e-02  1.70e-02  0.000   9.6
                              *** Initializing SOSCF ***
---------------------------------------S-O-S-C-F--------------------------------------
Iteration    Energy (Eh)           Delta-E    RMSDP     MaxDP     MaxGrad    Time(sec)
--------------------------------------------------------------------------------------
    5    -1030.7415356757983318    -6.64e-03  3.22e-05  8.65e-04  9.30e-04    10.3
               *** Restarting incremental Fock matrix formation ***
    6    -1030.7415453745657032    -9.70e-06  2.17e-05  7.16e-04  1.83e-04    18.9
    7    -1030.7415484319108145    -3.06e-06  1.13e-05  4.54e-04  4.20e-05    12.8
    8    -1030.7415481447055754     2.87e-07  6.67e-06  2.77e-04  7.06e-05    12.5
    9    -1030.7415487025587026    -5.58e-07  1.54e-06  6.61e-05  1.27e-05    11.7
   10    -1030.7415486868535481     1.57e-08  9.78e-07  4.30e-05  2.16e-05    10.0
   11    -1030.7415487047928764    -1.79e-08  2.73e-07  9.10e-06  1.69e-06     9.2
                  *** Gradient check signals convergence ***

               *****************************************************
               *                     SUCCESS                       *
               *           SCF CONVERGED AFTER  11 CYCLES          *
               *****************************************************

Recomputing exchange energy using gridx3       ... done (   29.498 sec)
Old exchange energy                            :    -26.463800239 Eh
New exchange energy                            :    -26.463823980 Eh
Exchange energy change after final integration :     -0.000023741 Eh
Total energy after final integration           :  -1030.741572446 Eh
             **** ENERGY FILE WAS UPDATED (Catechin.en.tmp) ****

----------------
TOTAL SCF ENERGY
----------------

Total Energy       :      -1030.74157244585217 Eh          -28047.90411 eV

Components:
Nuclear Repulsion  :       1638.83645280296469 Eh           44595.00705 eV
Electronic Energy  :      -2669.57800150828552 Eh          -72642.91052 eV
One Electron Energy:      -4664.70665028424446 Eh         -126933.12111 eV
Two Electron Energy:       1995.12864877595871 Eh           54290.21059 eV

Virial components:
Potential Energy   :      -2055.64153029847239 Eh          -55936.84981 eV
Kinetic Energy     :       1024.89995785262022 Eh           27888.94570 eV
Virial Ratio       :          2.00569969249045

DFT components:
N(Alpha)           :       75.999941408213 electrons
N(Beta)            :       75.999941408213 electrons
N(Total)           :      151.999882816426 electrons
E(X)               :     -105.195979348958 Eh       
E(C)               :       -6.207885500717 Eh       
E(XC)              :     -111.403864849675 Eh       

---------------
SCF CONVERGENCE
---------------

  Last Energy change         ...    1.7939e-08  Tolerance :   1.0000e-08
  Last MAX-Density change    ...    9.0964e-06  Tolerance :   1.0000e-07
  Last RMS-Density change    ...    2.7286e-07  Tolerance :   5.0000e-09
  Last DIIS Error            ...    9.2969e-04  Tolerance :   5.0000e-07
  Last Orbital Gradient      ...    1.6935e-06  Tolerance :   1.0000e-05
  Last Orbital Rotation      ...    6.5703e-06  Tolerance :   1.0000e-05


Total SCF time: 0 days 0 hours 2 min 53 sec 
Finished LeanSCF after 173.6 sec

Maximum memory used throughout the entire LEANSCF-calculation: 50.4 MB

------------------------------------------------------------------------------
                         ORCA PROPERTY INTEGRAL CALCULATIONS
------------------------------------------------------------------------------

GBWName                                   ... Catechin.gbw
Number of atoms                           ...     35
Number of basis functions                 ...    322
Max core memory                           ...   4096 MB

Dipole integrals                          ... YES
Quadrupole integrals                      ...  NO
Linear momentum integrals                 ...  NO
Angular momentum integrals                ...  NO
Higher moments length integrals           ...  NO
Higher moments velocity integrals         ...  NO
Kinetic energy integrals                  ...  NO
GIAO right hand sides                     ...  NO
GIAO dipole derivative integrals          ...  NO
SOC integrals                             ...  NO
EPR diamagnetic integrals (GIAO)          ...  NO
EPR gauge integrals                       ...  NO
Field gradient integrals                  ...  NO (   0 nuclei)
Spin-dipole/Fermi contact integrals       ...  NO (   0 nuclei)
Contact density integrals                 ...  NO (   0 nuclei)
Nucleus-orbit integrals                   ...  NO (   0 nuclei)
Geometric perturbations                   ...  NO (  35 nuclei)

Choice of electric origin   ... Center of mass
Position of electric origin ... ( -0.0068,  0.0091,  0.0557) 
Choice of magnetic origin   ... GIAO
Position of magnetic origin ... (  0.0000,  0.0000,  0.0000) 

Calculating integrals                     ... Electric Dipole (Length)     done (  0.1 sec)

Property integrals calculated in   0.1 sec

Maximum memory used throughout the entire PROPINT-calculation: 25.9 MB

-------------------------   --------------------
FINAL SINGLE POINT ENERGY     -1030.741572445852
-------------------------   --------------------

------------------------------------------------------------------------------
                         ORCA SCF GRADIENT CALCULATION
------------------------------------------------------------------------------

Nuc. rep. gradient        (SHARK) ... done (  0.0 sec)
HCore & Overlap gradient  (SHARK) ... done (  1.0 sec)
Split-RIJ-J gradient      (SHARK) ... done (  4.9 sec)
COSX-gradient                     ... done ( 66.9 sec)
XC gradient                       ... done ( 15.4 sec)

------------------
CARTESIAN GRADIENT
------------------

   1   O   :    0.000853567    0.000459406    0.000479121
   2   O   :    0.000294630   -0.000011119   -0.000544399
   3   O   :   -0.000242469   -0.000341821    0.000012764
   4   O   :    0.000237528   -0.000217101    0.000034923
   5   O   :   -0.000779665   -0.000142685   -0.000450855
   6   O   :    0.000523338    0.000341000    0.000730050
   7   C   :    0.000684899   -0.000101430    0.000099883
   8   C   :   -0.001917848   -0.000612314    0.000146555
   9   C   :    0.000033478    0.000078073    0.000247836
  10   C   :   -0.000689734   -0.000881890   -0.000058035
  11   C   :    0.000057967    0.000798203    0.000044386
  12   C   :    0.000831589    0.000063968   -0.001058135
  13   C   :    0.000623414    0.001239650    0.000095497
  14   C   :   -0.000291865    0.000092358   -0.000075375
  15   C   :   -0.000510926   -0.000851725   -0.000669193
  16   C   :   -0.000015328    0.000229809    0.000103927
  17   C   :    0.000167349   -0.000278416    0.000042166
  18   C   :   -0.000515443    0.000180865   -0.000017049
  19   C   :    0.002335659    0.000916977    0.002027846
  20   C   :    0.000693289    0.000279388    0.000601181
  21   C   :   -0.001865444   -0.000985389   -0.002141977
  22   H   :    0.000350425    0.000323283    0.000056303
  23   H   :   -0.000000383   -0.000404673    0.000049456
  24   H   :   -0.000331148   -0.000211759    0.000053135
  25   H   :    0.000167625    0.000094590   -0.000137875
  26   H   :    0.000030368   -0.000046124   -0.000018987
  27   H   :   -0.000240499    0.000285665    0.000327939
  28   H   :   -0.000388140   -0.000139367    0.000146934
  29   H   :    0.000028253    0.000020032   -0.000051083
  30   H   :   -0.000045775   -0.000096767   -0.000011148
  31   H   :   -0.000269251    0.000096478    0.000126919
  32   H   :    0.000094327   -0.000068870   -0.000019718
  33   H   :   -0.000081155    0.000014295   -0.000005829
  34   H   :    0.000167069   -0.000019820    0.000006476
  35   H   :    0.000010297   -0.000102768   -0.000173637

Difference to translation invariance:
           :   -0.0000000001    0.0000000000    0.0000000000

Difference to rotation invariance:
           :   -0.0000003492   -0.0000660122    0.0000034624

Norm of the Cartesian gradient     ...    0.0061233698
RMS gradient                       ...    0.0005975797
MAX gradient                       ...    0.0023356594

-------
TIMINGS
-------

Total SCF gradient time     ....       88.140 sec

Densities                   ....       0.002 sec  (  0.0%)
One electron gradient       ....       0.981 sec  (  1.1%)
RI-J Coulomb gradient       ....       4.871 sec  (  5.5%)
COSX gradient               ....      66.884 sec  ( 75.9%)
XC gradient                 ....      15.398 sec  ( 17.5%)

Maximum memory used throughout the entire SCFGRAD-calculation: 56.7 MB
------------------------------------------------------------------------------
                         ORCA GEOMETRY RELAXATION STEP
------------------------------------------------------------------------------

Reading the OPT-File                    .... done
Getting information on internals        .... done
Copying old internal coords+grads       .... done
Making the new internal coordinates     .... (2022 redundants) done
Validating the new internal coordinates .... (2022 redundants) done
Calculating the B-matrix                .... done
Calculating the G,G- and P matrices     .... done
Transforming gradient to internals      .... done
Projecting the internal gradient        .... done
Number of atoms                         ....  35
Number of internal coordinates          .... 183
Current Energy                          .... -1030.741572446 Eh
Current gradient norm                   ....     0.006123370 Eh/bohr
Maximum allowed component of the step   ....  0.300
Current trust radius                    ....  0.450
Updating the Hessian (BFGS)             .... done
Forming the augmented Hessian           .... done
Diagonalizing the augmented Hessian     .... done
Last element of RFO vector              ....  0.982066521
Lowest eigenvalues of augmented Hessian:
 -0.000144521  0.002768981  0.014997540  0.017181937  0.019468544
Length of the computed step             ....  0.191977569
The final length of the internal step   ....  0.191977569
Converting the step to Cartesian space:
 Initial RMS(Int)=    0.0141913902
Transforming coordinates:
 Iter   0:  RMS(Cart)=    0.0789798763 RMS(Int)=    0.6550800145
 Iter   5:  RMS(Cart)=    0.0000000219 RMS(Int)=    0.0000000088
done
Storing new coordinates                 .... done
The predicted energy change is          ....    -0.000074924
Previously predicted energy change      ....    -0.000170000
Actually observed energy change         ....    -0.000220677
Ratio of predicted to observed change   ....     1.298102368
New trust radius                        ....     0.450000000

                                .--------------------.
          ----------------------|Geometry convergence|-------------------------
          Item                value                   Tolerance       Converged
          ---------------------------------------------------------------------
          Energy change      -0.0002206771            0.0000050000      NO
          RMS gradient        0.0002846065            0.0001000000      NO
          MAX gradient        0.0013369553            0.0003000000      NO
          RMS step            0.0141913902            0.0020000000      NO
          MAX step            0.0852165252            0.0040000000      NO
          -------------------------------------------------------------------------
          ........................................................
          Max(Bonds)      0.0018      Max(Angles)    0.27
          Max(Dihed)        4.88      Max(Improp)    0.00
          ---------------------------------------------------------------------

The optimization has not yet converged - more geometry cycles are needed


    ---------------------------------------------------------------------------
                         Redundant Internal Coordinates
                            (Angstroem and degrees)

        Definition                    Value    dE/dq     Step     New-Value
    ----------------------------------------------------------------------------
     1. B(C   6,O   1)                1.4213  0.000282 -0.0010    1.4203   
     2. B(C   7,O   0)                1.4430  0.000854 -0.0018    1.4412   
     3. B(C   7,C   6)                1.5402  0.000079  0.0018    1.5421   
     4. B(C   8,C   6)                1.5318 -0.000331  0.0000    1.5319   
     5. B(C   9,C   8)                1.5094  0.000047 -0.0010    1.5084   
     6. B(C  10,C   9)                1.3996  0.000327 -0.0005    1.3991   
     7. B(C  10,O   0)                1.3677 -0.000540  0.0003    1.3679   
     8. B(C  11,C   7)                1.5085 -0.000908  0.0014    1.5099   
     9. B(C  12,C   9)                1.4061  0.000265  0.0002    1.4063   
    10. B(C  12,O   2)                1.3708  0.000306 -0.0001    1.3706   
    11. B(C  13,C  10)                1.4012 -0.000176  0.0003    1.4015   
    12. B(C  14,C  11)                1.4035  0.000079  0.0006    1.4041   
    13. B(C  15,C  11)                1.3929 -0.000156  0.0003    1.3933   
    14. B(C  16,C  12)                1.3932 -0.000384 -0.0003    1.3930   
    15. B(C  17,O   3)                1.3677 -0.000077 -0.0000    1.3677   
    16. B(C  17,C  16)                1.4002  0.000211 -0.0001    1.4001   
    17. B(C  17,C  13)                1.3929 -0.000014 -0.0004    1.3925   
    18. B(C  18,C  14)                1.3906 -0.000695  0.0001    1.3906   
    19. B(C  18,O   4)                1.3673 -0.000212 -0.0001    1.3673   
    20. B(C  19,C  15)                1.3983  0.000079  0.0001    1.3984   
    21. B(C  20,C  19)                1.3923 -0.000521 -0.0002    1.3921   
    22. B(C  20,C  18)                1.4128  0.001337 -0.0004    1.4124   
    23. B(C  20,O   5)                1.3664 -0.000365  0.0000    1.3665   
    24. B(H  21,C   6)                1.1024  0.000074 -0.0001    1.1023   
    25. B(H  22,C   7)                1.1000  0.000037  0.0001    1.1000   
    26. B(H  23,C   8)                1.0998  0.000023  0.0000    1.0999   
    27. B(H  24,C   8)                1.0979 -0.000097  0.0002    1.0981   
    28. B(H  25,C  13)                1.0864 -0.000053 -0.0000    1.0864   
    29. B(H  26,C  14)                1.0884  0.000156 -0.0005    1.0879   
    30. B(H  27,O   1)                0.9700  0.000090 -0.0000    0.9699   
    31. B(H  28,C  15)                1.0861  0.000039 -0.0001    1.0859   
    32. B(H  29,C  16)                1.0865 -0.000045 -0.0000    1.0865   
    33. B(H  30,C  19)                1.0893  0.000064 -0.0001    1.0892   
    34. B(H  31,O   2)                0.9701  0.000082 -0.0000    0.9701   
    35. B(H  32,O   3)                0.9702  0.000060  0.0000    0.9702   
    36. B(H  33,O   4)                0.9703  0.000128 -0.0001    0.9702   
    37. B(H  34,O   5)                0.9703  0.000163 -0.0001    0.9702   
    38. A(C   7,O   0,C  10)          118.23  0.000190   -0.05    118.18   
    39. A(C   6,O   1,H  27)          107.85  0.000501    0.06    107.90   
    40. A(C  12,O   2,H  31)          108.75  0.000145    0.02    108.77   
    41. A(C  17,O   3,H  32)          108.66 -0.000104    0.04    108.70   
    42. A(C  18,O   4,H  33)          108.20 -0.000201    0.05    108.26   
    43. A(C  20,O   5,H  34)          108.29 -0.000218    0.08    108.36   
    44. A(O   1,C   6,C   8)          111.67  0.000146   -0.09    111.58   
    45. A(C   8,C   6,H  21)          110.01 -0.000248    0.14    110.15   
    46. A(C   7,C   6,C   8)          109.80  0.000260   -0.15    109.65   
    47. A(O   1,C   6,C   7)          106.60 -0.000407    0.23    106.83   
    48. A(C   7,C   6,H  21)          107.47 -0.000113   -0.11    107.36   
    49. A(O   1,C   6,H  21)          111.15  0.000354   -0.02    111.13   
    50. A(C   6,C   7,C  11)          114.09  0.000745   -0.27    113.82   
    51. A(C  11,C   7,H  22)          109.56 -0.000052    0.10    109.65   
    52. A(C   6,C   7,H  22)          107.46 -0.000292   -0.03    107.42   
    53. A(O   0,C   7,C  11)          107.37 -0.000414    0.18    107.55   
    54. A(O   0,C   7,H  22)          108.85  0.000281   -0.05    108.79   
    55. A(O   0,C   7,C   6)          109.42 -0.000269    0.09    109.51   
    56. A(C   6,C   8,C   9)          111.09 -0.000243    0.02    111.11   
    57. A(C   9,C   8,H  24)          110.05 -0.000153   -0.07    109.98   
    58. A(C   6,C   8,H  24)          110.33  0.000301    0.00    110.34   
    59. A(C   9,C   8,H  23)          111.38  0.000367    0.01    111.39   
    60. A(C   6,C   8,H  23)          107.67 -0.000212    0.01    107.68   
    61. A(H  23,C   8,H  24)          106.17 -0.000044    0.04    106.21   
    62. A(C   8,C   9,C  10)          120.93  0.000340   -0.02    120.91   
    63. A(C  10,C   9,C  12)          117.11 -0.000408    0.01    117.12   
    64. A(C   8,C   9,C  12)          121.96  0.000067    0.01    121.96   
    65. A(C   9,C  10,C  13)          122.07  0.000296   -0.02    122.06   
    66. A(O   0,C  10,C  13)          115.66 -0.000032   -0.05    115.61   
    67. A(O   0,C  10,C   9)          122.26 -0.000263    0.06    122.32   
    68. A(C  14,C  11,C  15)          118.81 -0.000046    0.04    118.85   
    69. A(C   7,C  11,C  15)          120.86  0.000718   -0.13    120.73   
    70. A(C   7,C  11,C  14)          120.30 -0.000672    0.08    120.38   
    71. A(O   2,C  12,C   9)          115.98 -0.000609    0.06    116.04   
    72. A(C   9,C  12,C  16)          122.22  0.000267   -0.01    122.21   
    73. A(O   2,C  12,C  16)          121.80  0.000342   -0.06    121.74   
    74. A(C  17,C  13,H  25)          121.94  0.000091    0.05    121.99   
    75. A(C  10,C  13,H  25)          119.08  0.000095   -0.05    119.02   
    76. A(C  10,C  13,C  17)          118.98 -0.000186    0.00    118.99   
    77. A(C  11,C  14,C  18)          121.40  0.000362   -0.08    121.31   
    78. A(C  11,C  14,H  26)          119.58  0.000301   -0.07    119.51   
    79. A(C  18,C  14,H  26)          119.00 -0.000664    0.15    119.15   
    80. A(C  11,C  15,C  19)          120.22 -0.000090   -0.01    120.21   
    81. A(C  19,C  15,H  28)          119.70  0.000057    0.02    119.72   
    82. A(C  11,C  15,H  28)          120.08  0.000033   -0.01    120.07   
    83. A(C  17,C  16,H  29)          119.48  0.000151   -0.02    119.46   
    84. A(C  12,C  16,H  29)          121.63 -0.000049    0.02    121.65   
    85. A(C  12,C  16,C  17)          118.89 -0.000101   -0.00    118.88   
    86. A(C  13,C  17,C  16)          120.73  0.000132    0.01    120.74   
    87. A(O   3,C  17,C  16)          116.82 -0.000332   -0.01    116.81   
    88. A(O   3,C  17,C  13)          122.45  0.000200   -0.00    122.45   
    89. A(C  14,C  18,C  20)          119.48 -0.000307    0.05    119.54   
    90. A(O   4,C  18,C  20)          116.90 -0.000707    0.06    116.96   
    91. A(O   4,C  18,C  14)          123.62  0.001014   -0.11    123.51   
    92. A(C  20,C  19,H  30)          118.92 -0.000449   -0.05    118.88   
    93. A(C  15,C  19,H  30)          120.04  0.000182    0.06    120.10   
    94. A(C  15,C  19,C  20)          121.04  0.000267   -0.02    121.02   
    95. A(O   5,C  20,C  18)          117.05 -0.000727    0.07    117.12   
    96. A(C  18,C  20,C  19)          119.05 -0.000187    0.02    119.07   
    97. A(O   5,C  20,C  19)          123.90  0.000914   -0.09    123.81   
    98. D(C   8,C   6,O   1,H  27)     61.16  0.000158   -1.96     59.19   
    99. D(H  21,C   6,O   1,H  27)    -62.11  0.000116   -2.07    -64.18   
   100. D(C   7,C   6,O   1,H  27)   -178.93  0.000302   -2.05   -180.98   
   101. D(O   0,C   7,C   6,O   1)    178.10 -0.000064    0.01    178.11   
   102. D(C  11,C   7,O   0,C  10)    170.58  0.000334   -0.31    170.28   
   103. D(H  22,C   7,O   0,C  10)    -70.90  0.000193   -0.12    -71.02   
   104. D(C  11,C   7,C   6,O   1)     57.80  0.000164   -0.11     57.70   
   105. D(O   0,C   7,C   6,C   8)    -60.78  0.000014   -0.05    -60.83   
   106. D(C  11,C   7,C   6,H  21)    -61.44  0.000023   -0.14    -61.58   
   107. D(C  11,C   7,C   6,C   8)    178.92  0.000242   -0.16    178.76   
   108. D(C   6,C   7,O   0,C  10)     46.26 -0.000148   -0.14     46.11   
   109. D(O   0,C   7,C   6,H  21)     58.85 -0.000205   -0.02     58.83   
   110. D(C   9,C   8,C   6,H  21)    -72.91  0.000233    0.28    -72.63   
   111. D(C   9,C   8,C   6,O   1)    163.17 -0.000146    0.27    163.45   
   112. D(C   9,C   8,C   6,C   7)     45.16  0.000102    0.15     45.30   
   113. D(H  23,C   8,C   6,O   1)     40.97 -0.000311    0.25     41.21   
   114. D(H  23,C   8,C   6,C   7)    -77.05 -0.000062    0.12    -76.93   
   115. D(H  23,C   8,C   6,H  21)    164.88  0.000069    0.25    165.13   
   116. D(C  12,C   9,C   8,C   6)    163.07  0.000017   -0.21    162.86   
   117. D(C  10,C   9,C   8,H  23)    104.12 -0.000119   -0.16    103.96   
   118. D(C  10,C   9,C   8,H  24)   -138.40 -0.000045   -0.16   -138.56   
   119. D(C  12,C   9,C   8,H  23)    -76.90 -0.000170   -0.18    -77.08   
   120. D(C  10,C   9,C   8,C   6)    -15.91  0.000067   -0.19    -16.10   
   121. D(C  13,C  10,C   9,C  12)     -0.61  0.000021   -0.05     -0.66   
   122. D(C  13,C  10,C   9,C   8)    178.41 -0.000023   -0.07    178.35   
   123. D(O   0,C  10,C   9,C  12)   -179.34 -0.000033   -0.04   -179.38   
   124. D(O   0,C  10,C   9,C   8)     -0.31 -0.000077   -0.05     -0.36   
   125. D(C  13,C  10,O   0,C   7)    165.25  0.000012    0.23    165.48   
   126. D(C   9,C  10,O   0,C   7)    -15.95  0.000067    0.22    -15.73   
   127. D(C  14,C  11,C   7,C   6)     79.32 -0.000319    4.53     83.86   
   128. D(C  14,C  11,C   7,O   0)    -42.11 -0.000159    4.46    -37.65   
   129. D(C  15,C  11,C   7,C   6)    -98.70 -0.000310    4.88    -93.81   
   130. D(C  15,C  11,C   7,O   0)    139.87 -0.000149    4.82    144.69   
   131. D(C  14,C  11,C   7,H  22)   -160.17 -0.000229    4.38   -155.79   
   132. D(C  16,C  12,C   9,C  10)      0.56 -0.000001    0.02      0.58   
   133. D(C  16,C  12,C   9,C   8)   -178.45  0.000040    0.03   -178.42   
   134. D(O   2,C  12,C   9,C  10)   -179.77 -0.000006    0.03   -179.74   
   135. D(O   2,C  12,C   9,C   8)      1.22  0.000035    0.04      1.26   
   136. D(C  16,C  12,O   2,H  31)      0.98 -0.000031    0.35      1.33   
   137. D(C   9,C  12,O   2,H  31)   -178.69 -0.000026    0.34   -178.36   
   138. D(H  25,C  13,C  10,C   9)    179.75 -0.000028   -0.00    179.75   
   139. D(C  17,C  13,C  10,O   0)    179.00  0.000015    0.06    179.06   
   140. D(C  17,C  13,C  10,C   9)      0.20 -0.000033    0.07      0.27   
   141. D(H  25,C  13,C  10,O   0)     -1.44  0.000019   -0.02     -1.46   
   142. D(H  26,C  14,C  11,C  15)   -178.41  0.000029   -0.10   -178.51   
   143. D(H  26,C  14,C  11,C   7)      3.53  0.000023    0.24      3.77   
   144. D(C  18,C  14,C  11,C  15)     -0.15 -0.000021   -0.04     -0.19   
   145. D(C  18,C  14,C  11,C   7)   -178.21 -0.000027    0.31   -177.91   
   146. D(H  28,C  15,C  11,C  14)   -179.60 -0.000011    0.14   -179.46   
   147. D(H  28,C  15,C  11,C   7)     -1.55 -0.000033   -0.21     -1.76   
   148. D(C  19,C  15,C  11,C  14)     -0.27  0.000009    0.06     -0.21   
   149. D(C  19,C  15,C  11,C   7)    177.77 -0.000013   -0.28    177.49   
   150. D(H  29,C  16,C  12,C   9)   -179.98 -0.000004    0.02   -179.96   
   151. D(H  29,C  16,C  12,O   2)      0.36  0.000004    0.01      0.37   
   152. D(C  17,C  16,C  12,C   9)     -0.10 -0.000007   -0.01     -0.10   
   153. D(C  17,C  16,C  12,O   2)   -179.75  0.000001   -0.02   -179.77   
   154. D(C  16,C  17,C  13,H  25)   -179.25  0.000024    0.02   -179.22   
   155. D(C  16,C  17,C  13,C  10)      0.29  0.000028   -0.05      0.24   
   156. D(O   3,C  17,C  13,H  25)      0.37  0.000010    0.03      0.39   
   157. D(O   3,C  17,C  13,C  10)    179.90  0.000014   -0.05    179.86   
   158. D(C  16,C  17,O   3,H  32)    179.58 -0.000003    0.10    179.69   
   159. D(O   3,C  17,C  16,C  12)   -179.98  0.000003    0.02   -179.96   
   160. D(C  13,C  17,O   3,H  32)     -0.04  0.000009    0.10      0.05   
   161. D(C  13,C  17,C  16,H  29)    179.54 -0.000012   -0.00    179.54   
   162. D(C  13,C  17,C  16,C  12)     -0.34 -0.000008    0.02     -0.32   
   163. D(O   3,C  17,C  16,H  29)     -0.09 -0.000001   -0.01     -0.10   
   164. D(C  20,C  18,C  14,H  26)    178.77 -0.000013    0.05    178.82   
   165. D(C  20,C  18,C  14,C  11)      0.51  0.000020   -0.01      0.49   
   166. D(O   4,C  18,C  14,H  26)     -1.08 -0.000013    0.05     -1.03   
   167. D(O   4,C  18,C  14,C  11)   -179.34  0.000020   -0.02   -179.36   
   168. D(C  20,C  18,O   4,H  33)   -179.42 -0.000001    0.13   -179.29   
   169. D(C  14,C  18,O   4,H  33)      0.43 -0.000000    0.13      0.56   
   170. D(H  30,C  19,C  15,H  28)     -0.63  0.000020   -0.14     -0.77   
   171. D(H  30,C  19,C  15,C  11)   -179.96  0.000000   -0.06   -180.02   
   172. D(C  20,C  19,C  15,H  28)    179.68  0.000019   -0.13    179.55   
   173. D(C  20,C  19,C  15,C  11)      0.35 -0.000001   -0.05      0.30   
   174. D(C  18,C  20,C  19,H  30)   -179.69 -0.000002    0.01   -179.68   
   175. D(C  18,C  20,C  19,C  15)      0.01  0.000001    0.00      0.01   
   176. D(O   5,C  20,C  19,H  30)     -0.08 -0.000004   -0.01     -0.09   
   177. D(O   5,C  20,C  19,C  15)    179.62 -0.000000   -0.02    179.60   
   178. D(C  19,C  20,C  18,C  14)     -0.43 -0.000010    0.03     -0.40   
   179. D(C  19,C  20,C  18,O   4)    179.43 -0.000007    0.03    179.46   
   180. D(O   5,C  20,C  18,C  14)    179.94 -0.000015    0.05    179.98   
   181. D(O   5,C  20,C  18,O   4)     -0.21 -0.000012    0.05     -0.15   
   182. D(C  19,C  20,O   5,H  34)      0.37 -0.000001   -0.00      0.36   
   183. D(C  18,C  20,O   5,H  34)    179.98 -0.000001   -0.02    179.96   
    ----------------------------------------------------------------------------

Geometry step timings:
Preparation and reading OPT file:      0.005 s ( 3.686 %)
Internal coordinates            :      0.002 s ( 1.547 %)
B/P matrices and projection     :      0.007 s ( 4.945 %)
Hessian update/contruction      :      0.023 s (16.048 %)
Making the step                 :      0.006 s ( 4.444 %)
Converting the step to Cartesian:      0.003 s ( 2.267 %)
Storing new data                :      0.003 s ( 2.187 %)
Checking convergence            :      0.006 s ( 4.385 %)
Final printing                  :      0.088 s (60.487 %)
Total time                      :      0.146 s

Time for energy+gradient        :    270.503 s
Time for complete geometry iter :    270.901 s

         *************************************************************
         *                GEOMETRY OPTIMIZATION CYCLE   6            *
         *************************************************************
---------------------------------
CARTESIAN COORDINATES (ANGSTROEM)
---------------------------------
  O      0.426636    0.648899   -0.220137
  O     -0.705044   -2.819679   -0.239489
  O      4.384455   -1.989852    0.229483
  O      4.660206    2.773375    0.278638
  O     -4.060218    1.663492    1.814632
  O     -5.844744    0.716071    0.091895
  C      0.106609   -1.733329    0.182712
  C     -0.333653   -0.502780   -0.635798
  C      1.592714   -2.011194   -0.064017
  C      2.401238   -0.739422    0.001002
  C      1.780066    0.511831   -0.076209
  C     -1.796659   -0.161384   -0.484567
  C      3.798202   -0.752748    0.162077
  C      2.503779    1.708529    0.015697
  C     -2.236401    0.613756    0.600457
  C     -2.738522   -0.648006   -1.388589
  C      4.546147    0.418690    0.255058
  C      3.884898    1.650685    0.183599
  C     -3.584262    0.903534    0.782467
  C     -4.096765   -0.368240   -1.208444
  C     -4.534340    0.401581   -0.134217
  H     -0.064479   -1.499328    1.246194
  H     -0.109966   -0.712626   -1.692196
  H      1.683366   -2.494308   -1.047926
  H      1.972450   -2.735178    0.669042
  H      1.971661    2.653038   -0.054746
  H     -1.508041    1.019565    1.299288
  H     -0.430079   -3.607256    0.255363
  H     -2.421271   -1.256882   -2.229945
  H      5.625330    0.397821    0.378794
  H     -4.831607   -0.749282   -1.916419
  H      5.338135   -1.876294    0.365988
  H      4.087515    3.553489    0.210416
  H     -3.306452    1.948683    2.354873
  H     -6.381404    0.310748   -0.607375

----------------------------
CARTESIAN COORDINATES (A.U.)
----------------------------
  NO LB      ZA    FRAG     MASS         X           Y           Z
   0 O     8.0000    0    15.999    0.806226    1.226242   -0.415998
   1 O     8.0000    0    15.999   -1.332340   -5.328422   -0.452568
   2 O     8.0000    0    15.999    8.285419   -3.760276    0.433661
   3 O     8.0000    0    15.999    8.806513    5.240919    0.526549
   4 O     8.0000    0    15.999   -7.672701    3.143545    3.429157
   5 O     8.0000    0    15.999  -11.044965    1.353177    0.173656
   6 C     6.0000    0    12.011    0.201461   -3.275517    0.345275
   7 C     6.0000    0    12.011   -0.630512   -0.950117   -1.201483
   8 C     6.0000    0    12.011    3.009793   -3.800606   -0.120975
   9 C     6.0000    0    12.011    4.537682   -1.397305    0.001893
  10 C     6.0000    0    12.011    3.363837    0.967221   -0.144014
  11 C     6.0000    0    12.011   -3.395194   -0.304972   -0.915699
  12 C     6.0000    0    12.011    7.177561   -1.422488    0.306281
  13 C     6.0000    0    12.011    4.731457    3.228652    0.029663
  14 C     6.0000    0    12.011   -4.226185    1.159831    1.134700
  15 C     6.0000    0    12.011   -5.175056   -1.224553   -2.624053
  16 C     6.0000    0    12.011    8.590974    0.791210    0.481989
  17 C     6.0000    0    12.011    7.341394    3.119342    0.346951
  18 C     6.0000    0    12.011   -6.773273    1.707432    1.478648
  19 C     6.0000    0    12.011   -7.741765   -0.695873   -2.283629
  20 C     6.0000    0    12.011   -8.568662    0.758878   -0.253632
  21 H     1.0000    0     1.008   -0.121847   -2.833318    2.354966
  22 H     1.0000    0     1.008   -0.207806   -1.346667   -3.197787
  23 H     1.0000    0     1.008    3.181101   -4.713559   -1.980293
  24 H     1.0000    0     1.008    3.727390   -5.168738    1.264306
  25 H     1.0000    0     1.008    3.725899    5.013516   -0.103455
  26 H     1.0000    0     1.008   -2.849784    1.926699    2.455298
  27 H     1.0000    0     1.008   -0.812731   -6.816726    0.482565
  28 H     1.0000    0     1.008   -4.575539   -2.375163   -4.213985
  29 H     1.0000    0     1.008   10.630332    0.751772    0.715817
  30 H     1.0000    0     1.008   -9.130413   -1.415937   -3.621507
  31 H     1.0000    0     1.008   10.087613   -3.545682    0.691616
  32 H     1.0000    0     1.008    7.724285    6.715121    0.397628
  33 H     1.0000    0     1.008   -6.248288    3.682477    4.450065
  34 H     1.0000    0     1.008  -12.059107    0.587229   -1.147771

--------------------------------
INTERNAL COORDINATES (ANGSTROEM)
--------------------------------
 O      0   0   0     0.000000000000     0.00000000     0.00000000
 O      1   0   0     3.648576754207     0.00000000     0.00000000
 O      1   2   0     4.778022383598    74.47861508     0.00000000
 O      1   2   3     4.762906978581   134.45068352   357.55509033
 O      1   2   3     5.030064323223    85.25197989   209.66594486
 O      5   1   2     2.655176291780   105.37150966   303.41525043
 C      2   1   3     1.420278518107    25.04412853    38.01103273
 C      1   2   3     1.441242035850    22.35909394   137.50834014
 C      7   2   1     1.531859417645   111.57894956   238.51445545
 C      9   7   2     1.508423606475   111.10760745   163.44673981
 C      1   2   3     1.367945181586   102.25015816   359.57502498
 C      8   1   2     1.509903940748   107.55222934   122.30696028
 C      3   1   2     1.370643344130    30.97546649   181.70375016
 C     11   1   2     1.401532355351   115.60962599   182.28775037
 C     12   8   1     1.404098731400   120.37633645   322.35344023
 C     12   8   1     1.393255781019   120.73436949   144.68478519
 C     13   3   1     1.392959459645   121.74167267   179.53848112
 C      4   1   2     1.367686617816    28.68215622     2.81131940
 C      5   1   2     1.367272902101    43.28084209   315.18766019
 C     16  12   8     1.398408402173   120.20782342   177.49396312
 C      6   5   1     1.366450339977    62.93245498     8.95091571
 H      7   2   1     1.102280654749   111.12961788   115.14805138
 H      8   1   2     1.100021969557   108.79209613   241.00989592
 H      9   7   2     1.099860167762   107.68120147    41.21205222
 H      9   7   2     1.098056382324   110.33853369   285.70766682
 H     14  11   1     1.086374684107   119.02372080   358.54050180
 H     15  12   8     1.087912498546   119.51384905     3.77562873
 H      2   1   3     0.969928298813   132.94528130    38.89236328
 H     16  12   8     1.085936231590   120.06981320   358.24421100
 H     17  13   3     1.086453102070   121.65491314     0.37376414
 H     20  16  12     1.089225395308   120.10265803   179.98094219
 H      3   1   2     0.970069227373   139.72366930   184.32627606
 H      4   1   2     0.970157768366    80.01472756   182.44611864
 H      5   1   2     0.970236551707    65.89193236   122.55964347
 H      6   5   1     0.970189947556   171.29524544     8.19698860

---------------------------
INTERNAL COORDINATES (A.U.)
---------------------------
 O      0   0   0     0.000000000000     0.00000000     0.00000000
 O      1   0   0     6.894810844043     0.00000000     0.00000000
 O      1   2   0     9.029153766746    74.47861508     0.00000000
 O      1   2   3     9.000589790860   134.45068352   357.55509033
 O      1   2   3     9.505444006899    85.25197989   209.66594486
 O      5   1   2     5.017556028745   105.37150966   303.41525043
 C      2   1   3     2.683937433114    25.04412853    38.01103273
 C      1   2   3     2.723552740452    22.35909394   137.50834014
 C      7   2   1     2.894794775018   111.57894956   238.51445545
 C      9   7   2     2.850507510180   111.10760745   163.44673981
 C      1   2   3     2.585041759415   102.25015816   359.57502498
 C      8   1   2     2.853304936542   107.55222934   122.30696028
 C      3   1   2     2.590140547688    30.97546649   181.70375016
 C     11   1   2     2.648512319443   115.60962599   182.28775037
 C     12   8   1     2.653362067332   120.37633645   322.35344023
 C     12   8   1     2.632871860629   120.73436949   144.68478519
 C     13   3   1     2.632311894384   121.74167267   179.53848112
 C      4   1   2     2.584553144702    28.68215622     2.81131940
 C      5   1   2     2.583771335303    43.28084209   315.18766019
 C     16  12   8     2.642608903481   120.20782342   177.49396312
 C      6   5   1     2.582216918159    62.93245498     8.95091571
 H      7   2   1     2.083008560195   111.12961788   115.14805138
 H      8   1   2     2.078740263759   108.79209613   241.00989592
 H      9   7   2     2.078434502679   107.68120147    41.21205222
 H      9   7   2     2.075025842198   110.33853369   285.70766682
 H     14  11   1     2.052950631787   119.02372080   358.54050180
 H     15  12   8     2.055856679922   119.51384905     3.77562873
 H      2   1   3     1.832898854297   132.94528130    38.89236328
 H     16  12   8     2.052122076607   120.06981320   358.24421100
 H     17  13   3     2.053098820261   121.65491314     0.37376414
 H     20  16  12     2.058337695243   120.10265803   179.98094219
 H      3   1   2     1.833165170679   139.72366930   184.32627606
 H      4   1   2     1.833332488907    80.01472756   182.44611864
 H      5   1   2     1.833481367847    65.89193236   122.55964347
 H      6   5   1     1.833393298764   171.29524544     8.19698860

------------------------------------------------------------------------------
                   ___                                                        
                  /   \      - P O W E R E D   B Y -                         
                 /     \                                                     
                 |  |  |   _    _      __       _____    __    __             
                 |  |  |  | |  | |    /  \     |  _  \  |  |  /  |          
                  \  \/   | |  | |   /    \    | | | |  |  | /  /          
                 / \  \   | |__| |  /  /\  \   | |_| |  |  |/  /          
                |  |  |   |  __  | /  /__\  \  |    /   |      \           
                |  |  |   | |  | | |   __   |  |    \   |  |\   \          
                \     /   | |  | | |  |  |  |  | |\  \  |  | \   \       
                 \___/    |_|  |_| |__|  |__|  |_| \__\ |__|  \__/        
                                                                              
                      - O R C A' S   B I G   F R I E N D -                    
                                      &                                       
                       - I N T E G R A L  F E E D E R -                       
                                                                              
 v1 FN, 2020, v2 2021, v3 2022-2024                                           
------------------------------------------------------------------------------


----------------------
SHARK INTEGRAL PACKAGE
----------------------

Number of atoms                             ...     35
Number of basis functions                   ...    322
Number of shells                            ...    154
Maximum angular momentum                    ...      2
Integral batch strategy                     ... SHARK/LIBINT Hybrid
RI-J (if used) integral strategy            ... SPLIT-RIJ (Revised 2003 algorithm where possible)
Printlevel                                  ...      1
Contraction scheme used                     ... SEGMENTED contraction
Prescreening option                         ... SCHWARTZ
   Thresh                                   ... 2.500e-11
   Tcut                                     ... 2.500e-12
   Tpresel                                  ... 2.500e-12 
Coulomb Range Separation                    ... NOT USED
Exchange Range Separation                   ... NOT USED
Multipole approximations                    ... NOT USED
Finite Nucleus Model                        ... NOT USED
CABS basis                                  ... NOT available
Auxiliary Coulomb fitting basis             ... AVAILABLE
   # of basis functions in Aux-J            ...   1183
   # of shells in Aux-J                     ...    385
   Maximum angular momentum in Aux-J        ...      4
Auxiliary J/K fitting basis                 ... NOT available
Auxiliary Correlation fitting basis         ... NOT available
Auxiliary 'external' fitting basis          ... NOT available

Checking pre-screening integrals            ... done (  0.0 sec) Dimension = 154
   => SHARK Basis and OBASIS are compatible. Storing Pre-screening
Shell pair information
Shell pair cut-off parameter TPreSel        ...   2.5e-12
Total number of shell pairs                 ...     11935
Shell pairs after pre-screening             ...      8457
Total number of primitive shell pairs       ...     69489
Primitive shell pairs kept                  ...     27607
          la=0 lb=0:   2819 shell pairs
          la=1 lb=0:   2885 shell pairs
          la=1 lb=1:    744 shell pairs
          la=2 lb=0:   1216 shell pairs
          la=2 lb=1:    651 shell pairs
          la=2 lb=2:    142 shell pairs

Checking whether 4 symmetric matrices of dimension 322 fit in memory
:Max Core in MB      =   4096.00
 MB in use           =     15.96
 MB left             =   4080.04
 MB needed           =      1.59
 Data fit in memory  = YES
Calculating RI/J V-Matrix + Cholesky decomp.... done (  0.3 sec)
Calculating Nuclear repulsion               ... done (  0.0 sec) ENN=   1639.108597431639 Eh

Diagonalization of the overlap matrix:
Smallest eigenvalue                        ... 3.967e-04
Time for diagonalization                   ...    0.010 sec
Threshold for overlap eigenvalues          ... 1.000e-07
Number of eigenvalues below threshold      ... 0
Time for construction of square roots      ...    0.018 sec
Total time needed                          ...    0.047 sec

-------------------
DFT GRID GENERATION
-------------------

General Integration Accuracy     IntAcc      ... 4.388
Radial Grid Type                 RadialGrid  ... OptM3 with GC (2021)
Angular Grid (max. ang.)         AngularGrid ... 4 (Lebedev-302)
Angular grid pruning method      GridPruning ... 4 (adaptive)
Weight generation scheme         WeightScheme... mBecke (2022)
Basis function cutoff            BFCut       ... 1.0000e-11
Integration weight cutoff        WCut        ... 1.0000e-14
Partially contracted basis set               ... off
Rotationally invariant grid construction     ... off
Angular grids for H and He will be reduced by one unit

Total number of grid points                  ...   170365
Total number of batches                      ...     2680
Average number of points per batch           ...       63
Average number of grid points per atom       ...     4868

--------------------
COSX GRID GENERATION
--------------------

GRIDX 1
-------
General Integration Accuracy     IntAcc      ... 3.816
Radial Grid Type                 RadialGrid  ... OptM3 with GC (2021)
Angular Grid (max. ang.)         AngularGrid ... 1 (Lebedev-50)
Angular grid pruning method      GridPruning ... 4 (adaptive)
Weight generation scheme         WeightScheme... mBecke (2022)
Basis function cutoff            BFCut       ... 1.0000e-11
Integration weight cutoff        WCut        ... 1.0000e-14
Partially contracted basis set               ... on
Rotationally invariant grid construction     ... off
Angular grids for H and He will be reduced by one unit

Total number of grid points                  ...    21671
Total number of batches                      ...      189
Average number of points per batch           ...      114
Average number of grid points per atom       ...      619
UseSFitting                                  ... on

GRIDX 2
-------
General Integration Accuracy     IntAcc      ... 4.020
Radial Grid Type                 RadialGrid  ... OptM3 with GC (2021)
Angular Grid (max. ang.)         AngularGrid ... 2 (Lebedev-110)
Angular grid pruning method      GridPruning ... 4 (adaptive)
Weight generation scheme         WeightScheme... mBecke (2022)
Basis function cutoff            BFCut       ... 1.0000e-11
Integration weight cutoff        WCut        ... 1.0000e-14
Partially contracted basis set               ... on
Rotationally invariant grid construction     ... off
Angular grids for H and He will be reduced by one unit

Total number of grid points                  ...    47500
Total number of batches                      ...      388
Average number of points per batch           ...      122
Average number of grid points per atom       ...     1357
UseSFitting                                  ... on

GRIDX 3
-------
General Integration Accuracy     IntAcc      ... 4.338
Radial Grid Type                 RadialGrid  ... OptM3 with GC (2021)
Angular Grid (max. ang.)         AngularGrid ... 3 (Lebedev-194)
Angular grid pruning method      GridPruning ... 4 (adaptive)
Weight generation scheme         WeightScheme... mBecke (2022)
Basis function cutoff            BFCut       ... 1.0000e-11
Integration weight cutoff        WCut        ... 1.0000e-14
Partially contracted basis set               ... on
Rotationally invariant grid construction     ... off
Angular grids for H and He will be reduced by one unit

Total number of grid points                  ...   104057
Total number of batches                      ...      830
Average number of points per batch           ...      125
Average number of grid points per atom       ...     2973
UseSFitting                                  ... on
Grids setup in   6.0 sec
Initializing property integral containers    ... done (  0.0 sec)

SHARK setup successfully completed in   6.9 seconds

Maximum memory used throughout the entire STARTUP-calculation: 72.8 MB
Occupation numbers will be reassigned to an Aufbau configuration
             **** ENERGY FILE WAS UPDATED (Catechin.en.tmp) ****
Finished Guess after   0.6 sec
Maximum memory used throughout the entire GUESS-calculation: 26.1 MB
----------------------------------------D-I-I-S--------------------------------------------
Iteration    Energy (Eh)           Delta-E    RMSDP     MaxDP     DIISErr   Damp  Time(sec)
-------------------------------------------------------------------------------------------
               ***  Starting incremental Fock matrix formation  ***
    1    -1030.7318133146281980     0.00e+00  1.68e-04  5.07e-03  2.93e-02  0.700  19.5
    2    -1030.7343171147758767    -2.50e-03  1.61e-04  4.89e-03  2.34e-02  0.700   9.5
                               ***Turning on AO-DIIS***
    3    -1030.7363342449243646    -2.02e-03  1.39e-04  4.16e-03  1.78e-02  0.700   9.5
    4    -1030.7378390956200747    -1.50e-03  3.60e-04  1.06e-02  1.29e-02  0.000   9.5
                              *** Initializing SOSCF ***
---------------------------------------S-O-S-C-F--------------------------------------
Iteration    Energy (Eh)           Delta-E    RMSDP     MaxDP     MaxGrad    Time(sec)
--------------------------------------------------------------------------------------
    5    -1030.7416457845074547    -3.81e-03  2.45e-05  6.23e-04  7.05e-04    10.2
               *** Restarting incremental Fock matrix formation ***
    6    -1030.7416511468986755    -5.36e-06  1.65e-05  5.19e-04  1.39e-04    19.1
    7    -1030.7416529215506671    -1.77e-06  8.14e-06  3.39e-04  2.88e-05    12.6
    8    -1030.7416527638829393     1.58e-07  4.76e-06  2.11e-04  5.54e-05    11.9
    9    -1030.7416530603959473    -2.97e-07  1.04e-06  4.55e-05  8.91e-06    11.6
   10    -1030.7416530515015438     8.89e-09  6.54e-07  2.90e-05  1.43e-05     9.6
                 **** Energy Check signals convergence ****

               *****************************************************
               *                     SUCCESS                       *
               *           SCF CONVERGED AFTER  10 CYCLES          *
               *****************************************************

Recomputing exchange energy using gridx3       ... done (   29.241 sec)
Old exchange energy                            :    -26.464079511 Eh
New exchange energy                            :    -26.464099127 Eh
Exchange energy change after final integration :     -0.000019616 Eh
Total energy after final integration           :  -1030.741672673 Eh
             **** ENERGY FILE WAS UPDATED (Catechin.en.tmp) ****

----------------
TOTAL SCF ENERGY
----------------

Total Energy       :      -1030.74167267293751 Eh          -28047.90684 eV

Components:
Nuclear Repulsion  :       1639.10859743163928 Eh           44602.41248 eV
Electronic Energy  :      -2669.85025048868692 Eh          -72650.31879 eV
One Electron Energy:      -4665.24496258520321 Eh         -126947.76933 eV
Two Electron Energy:       1995.39471209651629 Eh           54297.45055 eV

Virial components:
Potential Energy   :      -2055.64395763704306 Eh          -55936.91587 eV
Kinetic Energy     :       1024.90228496410555 Eh           27889.00902 eV
Virial Ratio       :          2.00569750677162

DFT components:
N(Alpha)           :       75.999953188657 electrons
N(Beta)            :       75.999953188657 electrons
N(Total)           :      151.999906377315 electrons
E(X)               :     -105.196795490028 Eh       
E(C)               :       -6.208087571574 Eh       
E(XC)              :     -111.404883061602 Eh       

---------------
SCF CONVERGENCE
---------------

  Last Energy change         ...   -8.8944e-09  Tolerance :   1.0000e-08
  Last MAX-Density change    ...    2.9040e-05  Tolerance :   1.0000e-07
  Last RMS-Density change    ...    6.5412e-07  Tolerance :   5.0000e-09
  Last DIIS Error            ...    7.0519e-04  Tolerance :   5.0000e-07
  Last Orbital Gradient      ...    1.4311e-05  Tolerance :   1.0000e-05
  Last Orbital Rotation      ...    2.2544e-05  Tolerance :   1.0000e-05


Total SCF time: 0 days 0 hours 2 min 43 sec 
Finished LeanSCF after 163.8 sec

Maximum memory used throughout the entire LEANSCF-calculation: 50.5 MB

------------------------------------------------------------------------------
                         ORCA PROPERTY INTEGRAL CALCULATIONS
------------------------------------------------------------------------------

GBWName                                   ... Catechin.gbw
Number of atoms                           ...     35
Number of basis functions                 ...    322
Max core memory                           ...   4096 MB

Dipole integrals                          ... YES
Quadrupole integrals                      ...  NO
Linear momentum integrals                 ...  NO
Angular momentum integrals                ...  NO
Higher moments length integrals           ...  NO
Higher moments velocity integrals         ...  NO
Kinetic energy integrals                  ...  NO
GIAO right hand sides                     ...  NO
GIAO dipole derivative integrals          ...  NO
SOC integrals                             ...  NO
EPR diamagnetic integrals (GIAO)          ...  NO
EPR gauge integrals                       ...  NO
Field gradient integrals                  ...  NO (   0 nuclei)
Spin-dipole/Fermi contact integrals       ...  NO (   0 nuclei)
Contact density integrals                 ...  NO (   0 nuclei)
Nucleus-orbit integrals                   ...  NO (   0 nuclei)
Geometric perturbations                   ...  NO (  35 nuclei)

Choice of electric origin   ... Center of mass
Position of electric origin ... ( -0.0068,  0.0148,  0.0571) 
Choice of magnetic origin   ... GIAO
Position of magnetic origin ... (  0.0000,  0.0000,  0.0000) 

Calculating integrals                     ... Electric Dipole (Length)     done (  0.1 sec)

Property integrals calculated in   0.1 sec

Maximum memory used throughout the entire PROPINT-calculation: 25.9 MB

-------------------------   --------------------
FINAL SINGLE POINT ENERGY     -1030.741672672938
-------------------------   --------------------

------------------------------------------------------------------------------
                         ORCA SCF GRADIENT CALCULATION
------------------------------------------------------------------------------

Nuc. rep. gradient        (SHARK) ... done (  0.0 sec)
HCore & Overlap gradient  (SHARK) ... done (  1.0 sec)
Split-RIJ-J gradient      (SHARK) ... done (  4.9 sec)
COSX-gradient                     ... done ( 67.4 sec)
XC gradient                       ... done ( 15.7 sec)

------------------
CARTESIAN GRADIENT
------------------

   1   O   :    0.000510221    0.000712689    0.000340072
   2   O   :    0.000766167    0.000132238    0.000020877
   3   O   :    0.000018240   -0.000161401   -0.000025931
   4   O   :    0.000156427   -0.000245650   -0.000008142
   5   O   :   -0.000343023   -0.000322077   -0.000500110
   6   O   :    0.000650999    0.000085980    0.000262045
   7   C   :   -0.000046297   -0.000791010    0.000178786
   8   C   :   -0.000917380    0.000270669   -0.000013340
   9   C   :    0.000101211    0.000432594   -0.000112813
  10   C   :   -0.000937482   -0.000886190   -0.000008715
  11   C   :   -0.000082407    0.000087618   -0.000034874
  12   C   :    0.000536390   -0.000439014   -0.001451690
  13   C   :    0.000498087    0.001175341    0.000104894
  14   C   :    0.000223084    0.000288527    0.000062072
  15   C   :   -0.000677622   -0.000101744    0.000320144
  16   C   :    0.000262573    0.000103463    0.000330806
  17   C   :    0.000146370   -0.000410229    0.000048806
  18   C   :   -0.000699176   -0.000060892   -0.000068781
  19   C   :    0.002222979    0.000925870    0.001698530
  20   C   :    0.000098560    0.000384572    0.000574894
  21   C   :   -0.001612569   -0.001182823   -0.001991963
  22   H   :    0.000135760    0.000336434   -0.000046010
  23   H   :    0.000129739   -0.000298260    0.000078692
  24   H   :   -0.000299592   -0.000166170    0.000050611
  25   H   :    0.000223565    0.000141128   -0.000061253
  26   H   :   -0.000056090   -0.000103513   -0.000028850
  27   H   :   -0.000204515    0.000197835    0.000144260
  28   H   :   -0.000404076   -0.000238785   -0.000025728
  29   H   :    0.000012241    0.000013792   -0.000084033
  30   H   :   -0.000073209   -0.000062179   -0.000016189
  31   H   :   -0.000334240    0.000186935    0.000218110
  32   H   :    0.000081722   -0.000108635    0.000023101
  33   H   :   -0.000056153    0.000056835    0.000016998
  34   H   :    0.000061931    0.000065971    0.000063590
  35   H   :   -0.000092433   -0.000019919   -0.000058866

Difference to translation invariance:
           :   -0.0000000001    0.0000000000   -0.0000000000

Difference to rotation invariance:
           :    0.0000070143   -0.0000378558   -0.0000472941

Norm of the Cartesian gradient     ...    0.0054799888
RMS gradient                       ...    0.0005347921
MAX gradient                       ...    0.0022229786

-------
TIMINGS
-------

Total SCF gradient time     ....       88.936 sec

Densities                   ....       0.002 sec  (  0.0%)
One electron gradient       ....       0.953 sec  (  1.1%)
RI-J Coulomb gradient       ....       4.888 sec  (  5.5%)
COSX gradient               ....      67.424 sec  ( 75.8%)
XC gradient                 ....      15.665 sec  ( 17.6%)

Maximum memory used throughout the entire SCFGRAD-calculation: 56.8 MB
------------------------------------------------------------------------------
                         ORCA GEOMETRY RELAXATION STEP
------------------------------------------------------------------------------

Reading the OPT-File                    .... done
Getting information on internals        .... done
Copying old internal coords+grads       .... done
Making the new internal coordinates     .... (2022 redundants) done
Validating the new internal coordinates .... (2022 redundants) done
Calculating the B-matrix                .... done
Calculating the G,G- and P matrices     .... done
Transforming gradient to internals      .... done
Projecting the internal gradient        .... done
Number of atoms                         ....  35
Number of internal coordinates          .... 183
Current Energy                          .... -1030.741672673 Eh
Current gradient norm                   ....     0.005479989 Eh/bohr
Maximum allowed component of the step   ....  0.300
Current trust radius                    ....  0.450
Updating the Hessian (BFGS)             .... done
Forming the augmented Hessian           .... done
Diagonalizing the augmented Hessian     .... done
Last element of RFO vector              ....  0.994103610
Lowest eigenvalues of augmented Hessian:
 -0.000065022  0.002260859  0.015008564  0.017056537  0.019518539
Length of the computed step             ....  0.109077533
The final length of the internal step   ....  0.109077533
Converting the step to Cartesian space:
 Initial RMS(Int)=    0.0080632432
Transforming coordinates:
 Iter   0:  RMS(Cart)=    0.0415255421 RMS(Int)=    0.4644829329
done
Storing new coordinates                 .... done
The predicted energy change is          ....    -0.000032898
Previously predicted energy change      ....    -0.000074924
Actually observed energy change         ....    -0.000100227
Ratio of predicted to observed change   ....     1.337721222
New trust radius                        ....     0.450000000

                                .--------------------.
          ----------------------|Geometry convergence|-------------------------
          Item                value                   Tolerance       Converged
          ---------------------------------------------------------------------
          Energy change      -0.0001002271            0.0000050000      NO
          RMS gradient        0.0002618006            0.0001000000      NO
          MAX gradient        0.0014740820            0.0003000000      NO
          RMS step            0.0080632432            0.0020000000      NO
          MAX step            0.0466579209            0.0040000000      NO
          -------------------------------------------------------------------------
          ........................................................
          Max(Bonds)      0.0017      Max(Angles)    0.19
          Max(Dihed)        2.67      Max(Improp)    0.00
          ---------------------------------------------------------------------

The optimization has not yet converged - more geometry cycles are needed


    ---------------------------------------------------------------------------
                         Redundant Internal Coordinates
                            (Angstroem and degrees)

        Definition                    Value    dE/dq     Step     New-Value
    ----------------------------------------------------------------------------
     1. B(C   6,O   1)                1.4203 -0.000124 -0.0001    1.4202   
     2. B(C   7,O   0)                1.4412  0.000594 -0.0016    1.4397   
     3. B(C   7,C   6)                1.5421  0.000478  0.0001    1.5422   
     4. B(C   8,C   6)                1.5319 -0.000319  0.0004    1.5322   
     5. B(C   9,C   8)                1.5084 -0.000440  0.0001    1.5086   
     6. B(C  10,C   9)                1.3991  0.000126 -0.0003    1.3988   
     7. B(C  10,O   0)                1.3679 -0.000433  0.0005    1.3684   
     8. B(C  11,C   7)                1.5099 -0.000634  0.0016    1.5116   
     9. B(C  12,C   9)                1.4063  0.000388 -0.0003    1.4059   
    10. B(C  12,O   2)                1.3706  0.000286 -0.0003    1.3703   
    11. B(C  13,C  10)                1.4015 -0.000033  0.0001    1.4016   
    12. B(C  14,C  11)                1.4041  0.000644 -0.0005    1.4036   
    13. B(C  15,C  11)                1.3933 -0.000152  0.0005    1.3937   
    14. B(C  16,C  12)                1.3930 -0.000607  0.0004    1.3934   
    15. B(C  17,O   3)                1.3677 -0.000097  0.0000    1.3677   
    16. B(C  17,C  16)                1.4001  0.000040 -0.0002    1.3999   
    17. B(C  17,C  13)                1.3925 -0.000305  0.0001    1.3926   
    18. B(C  18,C  14)                1.3906 -0.000914  0.0009    1.3916   
    19. B(C  18,O   4)                1.3673 -0.000374  0.0004    1.3676   
    20. B(C  19,C  15)                1.3984  0.000343 -0.0003    1.3981   
    21. B(C  20,C  19)                1.3921 -0.000886  0.0008    1.3929   
    22. B(C  20,C  18)                1.4124  0.001474 -0.0017    1.4107   
    23. B(C  20,O   5)                1.3665 -0.000487  0.0005    1.3669   
    24. B(H  21,C   6)                1.1023  0.000006 -0.0001    1.1022   
    25. B(H  22,C   7)                1.1000  0.000008  0.0000    1.1001   
    26. B(H  23,C   8)                1.0999  0.000003 -0.0000    1.0999   
    27. B(H  24,C   8)                1.0981 -0.000057  0.0001    1.0982   
    28. B(H  25,C  13)                1.0864 -0.000060  0.0001    1.0864   
    29. B(H  26,C  14)                1.0879  0.000030 -0.0003    1.0876   
    30. B(H  27,O   1)                0.9699  0.000066 -0.0000    0.9699   
    31. B(H  28,C  15)                1.0859  0.000061 -0.0002    1.0858   
    32. B(H  29,C  16)                1.0865 -0.000073  0.0001    1.0865   
    33. B(H  30,C  19)                1.0892  0.000018 -0.0001    1.0891   
    34. B(H  31,O   2)                0.9701  0.000071 -0.0001    0.9700   
    35. B(H  32,O   3)                0.9702  0.000078 -0.0001    0.9701   
    36. B(H  33,O   4)                0.9702  0.000103 -0.0002    0.9701   
    37. B(H  34,O   5)                0.9702  0.000102 -0.0002    0.9700   
    38. A(C   7,O   0,C  10)          118.18 -0.000291    0.02    118.20   
    39. A(C   6,O   1,H  27)          107.90  0.000772   -0.11    107.79   
    40. A(C  12,O   2,H  31)          108.77  0.000215   -0.03    108.74   
    41. A(C  17,O   3,H  32)          108.70 -0.000017    0.02    108.71   
    42. A(C  18,O   4,H  33)          108.26  0.000060    0.01    108.27   
    43. A(C  20,O   5,H  34)          108.36  0.000082    0.01    108.38   
    44. A(O   1,C   6,C   8)          111.58 -0.000113   -0.05    111.53   
    45. A(C   8,C   6,H  21)          110.15  0.000064    0.03    110.18   
    46. A(C   7,C   6,C   8)          109.65 -0.000080   -0.01    109.64   
    47. A(O   1,C   6,C   7)          106.82  0.000113    0.13    106.95   
    48. A(C   7,C   6,H  21)          107.36 -0.000201    0.02    107.39   
    49. A(O   1,C   6,H  21)          111.13  0.000210   -0.13    111.00   
    50. A(C   6,C   7,C  11)          113.82  0.000144   -0.13    113.69   
    51. A(C  11,C   7,H  22)          109.65  0.000173   -0.04    109.62   
    52. A(C   6,C   7,H  22)          107.42 -0.000225    0.05    107.47   
    53. A(O   0,C   7,C  11)          107.55 -0.000232    0.12    107.67   
    54. A(O   0,C   7,H  22)          108.79  0.000120   -0.07    108.72   
    55. A(O   0,C   7,C   6)          109.51  0.000026    0.07    109.58   
    56. A(C   6,C   8,C   9)          111.11 -0.000098    0.02    111.13   
    57. A(C   9,C   8,H  24)          109.98 -0.000307    0.04    110.03   
    58. A(C   6,C   8,H  24)          110.34  0.000282   -0.06    110.27   
    59. A(C   9,C   8,H  23)          111.39  0.000295   -0.11    111.29   
    60. A(C   6,C   8,H  23)          107.68 -0.000194    0.08    107.76   
    61. A(H  23,C   8,H  24)          106.21  0.000037    0.03    106.23   
    62. A(C   8,C   9,C  10)          120.91  0.000350   -0.05    120.85   
    63. A(C  10,C   9,C  12)          117.12 -0.000348    0.06    117.18   
    64. A(C   8,C   9,C  12)          121.97 -0.000004   -0.01    121.96   
    65. A(C   9,C  10,C  13)          122.06  0.000138   -0.04    122.02   
    66. A(O   0,C  10,C  13)          115.61 -0.000157   -0.00    115.61   
    67. A(O   0,C  10,C   9)          122.32  0.000020    0.04    122.36   
    68. A(C  14,C  11,C  15)          118.85  0.000018    0.01    118.86   
    69. A(C   7,C  11,C  15)          120.73  0.000762   -0.19    120.54   
    70. A(C   7,C  11,C  14)          120.38 -0.000783    0.18    120.55   
    71. A(O   2,C  12,C   9)          116.04 -0.000267    0.08    116.13   
    72. A(C   9,C  12,C  16)          122.21  0.000249   -0.05    122.17   
    73. A(O   2,C  12,C  16)          121.74  0.000017   -0.03    121.71   
    74. A(C  17,C  13,H  25)          121.99  0.000171   -0.01    121.98   
    75. A(C  10,C  13,H  25)          119.02 -0.000039   -0.01    119.01   
    76. A(C  10,C  13,C  17)          118.99 -0.000132    0.02    119.01   
    77. A(C  11,C  14,C  18)          121.31  0.000088   -0.06    121.26   
    78. A(C  11,C  14,H  26)          119.51  0.000275   -0.08    119.44   
    79. A(C  18,C  14,H  26)          119.15 -0.000364    0.14    119.29   
    80. A(C  11,C  15,C  19)          120.21 -0.000065    0.01    120.22   
    81. A(C  19,C  15,H  28)          119.72  0.000020    0.00    119.72   
    82. A(C  11,C  15,H  28)          120.07  0.000046   -0.01    120.06   
    83. A(C  17,C  16,H  29)          119.46  0.000128   -0.03    119.43   
    84. A(C  12,C  16,H  29)          121.65 -0.000002    0.01    121.66   
    85. A(C  12,C  16,C  17)          118.88 -0.000126    0.02    118.91   
    86. A(C  13,C  17,C  16)          120.74  0.000218   -0.02    120.72   
    87. A(O   3,C  17,C  16)          116.81 -0.000346    0.05    116.86   
    88. A(O   3,C  17,C  13)          122.45  0.000128   -0.03    122.42   
    89. A(C  14,C  18,C  20)          119.54 -0.000182    0.05    119.59   
    90. A(O   4,C  18,C  20)          116.96 -0.000510    0.12    117.08   
    91. A(O   4,C  18,C  14)          123.51  0.000692   -0.17    123.33   
    92. A(C  20,C  19,H  30)          118.88 -0.000513    0.08    118.96   
    93. A(C  15,C  19,H  30)          120.10  0.000393   -0.05    120.05   
    94. A(C  15,C  19,C  20)          121.02  0.000120   -0.03    120.99   
    95. A(O   5,C  20,C  18)          117.12 -0.000500    0.12    117.24   
    96. A(C  18,C  20,C  19)          119.07  0.000022    0.01    119.08   
    97. A(O   5,C  20,C  19)          123.81  0.000478   -0.13    123.68   
    98. D(C   8,C   6,O   1,H  27)     59.19  0.000197   -1.38     57.81   
    99. D(H  21,C   6,O   1,H  27)    -64.17  0.000042   -1.31    -65.48   
   100. D(C   7,C   6,O   1,H  27)    179.02  0.000105   -1.34    177.67   
   101. D(O   0,C   7,C   6,O   1)    178.11  0.000008    0.08    178.19   
   102. D(C  11,C   7,O   0,C  10)    170.27  0.000028   -0.15    170.12   
   103. D(H  22,C   7,O   0,C  10)    -71.02  0.000169   -0.16    -71.19   
   104. D(C  11,C   7,C   6,O   1)     57.70  0.000190   -0.03     57.67   
   105. D(O   0,C   7,C   6,C   8)    -60.83 -0.000106    0.10    -60.73   
   106. D(C  11,C   7,C   6,H  21)    -61.58 -0.000010    0.03    -61.55   
   107. D(C  11,C   7,C   6,C   8)    178.76  0.000076   -0.02    178.74   
   108. D(C   6,C   7,O   0,C  10)     46.12 -0.000017   -0.11     46.01   
   109. D(O   0,C   7,C   6,H  21)     58.83 -0.000193    0.15     58.98   
   110. D(C   9,C   8,C   6,H  21)    -72.63  0.000236   -0.06    -72.69   
   111. D(C   9,C   8,C   6,O   1)    163.45 -0.000002    0.11    163.55   
   112. D(C   9,C   8,C   6,C   7)     45.30 -0.000020   -0.01     45.29   
   113. D(H  23,C   8,C   6,O   1)     41.21 -0.000179    0.17     41.38   
   114. D(H  23,C   8,C   6,C   7)    -76.93 -0.000198    0.05    -76.88   
   115. D(H  23,C   8,C   6,H  21)    165.13  0.000058    0.01    165.14   
   116. D(C  12,C   9,C   8,C   6)    162.87 -0.000031    0.03    162.89   
   117. D(C  10,C   9,C   8,H  23)    103.96 -0.000097   -0.06    103.90   
   118. D(C  10,C   9,C   8,H  24)   -138.56 -0.000063   -0.07   -138.63   
   119. D(C  12,C   9,C   8,H  23)    -77.08 -0.000144    0.07    -77.01   
   120. D(C  10,C   9,C   8,C   6)    -16.10  0.000017   -0.10    -16.20   
   121. D(C  13,C  10,C   9,C  12)     -0.66 -0.000003   -0.03     -0.70   
   122. D(C  13,C  10,C   9,C   8)    178.35 -0.000046    0.09    178.44   
   123. D(O   0,C  10,C   9,C  12)   -179.38 -0.000036   -0.04   -179.41   
   124. D(O   0,C  10,C   9,C   8)     -0.36 -0.000078    0.09     -0.28   
   125. D(C  13,C  10,O   0,C   7)    165.48  0.000019    0.02    165.50   
   126. D(C   9,C  10,O   0,C   7)    -15.73  0.000054    0.03    -15.70   
   127. D(C  14,C  11,C   7,C   6)     83.86 -0.000114    2.67     86.53   
   128. D(C  14,C  11,C   7,O   0)    -37.65 -0.000075    2.58    -35.06   
   129. D(C  15,C  11,C   7,C   6)    -93.81 -0.000043    2.50    -91.31   
   130. D(C  15,C  11,C   7,O   0)    144.68 -0.000003    2.41    147.10   
   131. D(C  14,C  11,C   7,H  22)   -155.79 -0.000181    2.62   -153.18   
   132. D(C  16,C  12,C   9,C  10)      0.58  0.000011    0.01      0.59   
   133. D(C  16,C  12,C   9,C   8)   -178.42  0.000050   -0.12   -178.54   
   134. D(O   2,C  12,C   9,C  10)   -179.74  0.000002    0.03   -179.71   
   135. D(O   2,C  12,C   9,C   8)      1.26  0.000041   -0.10      1.16   
   136. D(C  16,C  12,O   2,H  31)      1.33  0.000007    0.12      1.45   
   137. D(C   9,C  12,O   2,H  31)   -178.36  0.000015    0.11   -178.25   
   138. D(H  25,C  13,C  10,C   9)    179.75 -0.000017    0.02    179.77   
   139. D(C  17,C  13,C  10,O   0)    179.06  0.000027    0.05    179.11   
   140. D(C  17,C  13,C  10,C   9)      0.27 -0.000005    0.04      0.31   
   141. D(H  25,C  13,C  10,O   0)     -1.46  0.000016    0.03     -1.43   
   142. D(H  26,C  14,C  11,C  15)   -178.51  0.000019   -0.04   -178.55   
   143. D(H  26,C  14,C  11,C   7)      3.78  0.000072   -0.21      3.57   
   144. D(C  18,C  14,C  11,C  15)     -0.19 -0.000020    0.08     -0.11   
   145. D(C  18,C  14,C  11,C   7)   -177.90  0.000032   -0.09   -177.99   
   146. D(H  28,C  15,C  11,C  14)   -179.46 -0.000002    0.04   -179.42   
   147. D(H  28,C  15,C  11,C   7)     -1.76 -0.000091    0.21     -1.55   
   148. D(C  19,C  15,C  11,C  14)     -0.21  0.000014   -0.04     -0.25   
   149. D(C  19,C  15,C  11,C   7)    177.49 -0.000075    0.13    177.62   
   150. D(H  29,C  16,C  12,C   9)   -179.96 -0.000004    0.00   -179.96   
   151. D(H  29,C  16,C  12,O   2)      0.37  0.000007   -0.01      0.36   
   152. D(C  17,C  16,C  12,C   9)     -0.10 -0.000009    0.00     -0.10   
   153. D(C  17,C  16,C  12,O   2)   -179.77  0.000001   -0.01   -179.78   
   154. D(C  16,C  17,C  13,H  25)   -179.22  0.000024   -0.01   -179.23   
   155. D(C  16,C  17,C  13,C  10)      0.24  0.000011   -0.03      0.21   
   156. D(O   3,C  17,C  13,H  25)      0.39  0.000014   -0.00      0.39   
   157. D(O   3,C  17,C  13,C  10)    179.86  0.000001   -0.02    179.83   
   158. D(C  16,C  17,O   3,H  32)    179.69  0.000016   -0.01    179.68   
   159. D(O   3,C  17,C  16,C  12)   -179.96  0.000004    0.00   -179.95   
   160. D(C  13,C  17,O   3,H  32)      0.05  0.000024   -0.01      0.04   
   161. D(C  13,C  17,C  16,H  29)    179.54 -0.000010    0.01    179.55   
   162. D(C  13,C  17,C  16,C  12)     -0.32 -0.000004    0.01     -0.31   
   163. D(O   3,C  17,C  16,H  29)     -0.10 -0.000001    0.00     -0.10   
   164. D(C  20,C  18,C  14,H  26)    178.82 -0.000009    0.03    178.85   
   165. D(C  20,C  18,C  14,C  11)      0.49  0.000020   -0.09      0.41   
   166. D(O   4,C  18,C  14,H  26)     -1.03 -0.000011    0.04     -0.99   
   167. D(O   4,C  18,C  14,C  11)   -179.36  0.000018   -0.08   -179.44   
   168. D(C  20,C  18,O   4,H  33)   -179.29  0.000020    0.00   -179.29   
   169. D(C  14,C  18,O   4,H  33)      0.56  0.000022   -0.01      0.56   
   170. D(H  30,C  19,C  15,H  28)     -0.77  0.000007   -0.08     -0.85   
   171. D(H  30,C  19,C  15,C  11)    179.98 -0.000009    0.00    179.98   
   172. D(C  20,C  19,C  15,H  28)    179.55  0.000004   -0.07    179.48   
   173. D(C  20,C  19,C  15,C  11)      0.30 -0.000012    0.01      0.31   
   174. D(C  18,C  20,C  19,H  30)   -179.68  0.000006   -0.01   -179.69   
   175. D(C  18,C  20,C  19,C  15)      0.01  0.000012   -0.02     -0.01   
   176. D(O   5,C  20,C  19,H  30)     -0.09 -0.000007    0.01     -0.08   
   177. D(O   5,C  20,C  19,C  15)    179.60 -0.000001   -0.00    179.60   
   178. D(C  19,C  20,C  18,C  14)     -0.40 -0.000017    0.06     -0.34   
   179. D(C  19,C  20,C  18,O   4)    179.46 -0.000013    0.05    179.51   
   180. D(O   5,C  20,C  18,C  14)    179.98 -0.000008    0.04    180.02   
   181. D(O   5,C  20,C  18,O   4)     -0.15 -0.000005    0.03     -0.13   
   182. D(C  19,C  20,O   5,H  34)      0.36 -0.000000   -0.00      0.36   
   183. D(C  18,C  20,O   5,H  34)    179.96 -0.000011    0.02    179.98   
    ----------------------------------------------------------------------------

Geometry step timings:
Preparation and reading OPT file:      0.004 s ( 2.973 %)
Internal coordinates            :      0.003 s ( 1.793 %)
B/P matrices and projection     :      0.008 s ( 5.400 %)
Hessian update/contruction      :      0.024 s (16.826 %)
Making the step                 :      0.007 s ( 4.824 %)
Converting the step to Cartesian:      0.002 s ( 1.323 %)
Storing new data                :      0.004 s ( 2.619 %)
Checking convergence            :      0.006 s ( 3.858 %)
Final printing                  :      0.087 s (60.382 %)
Total time                      :      0.144 s

Time for energy+gradient        :    261.402 s
Time for complete geometry iter :    261.797 s

         *************************************************************
         *                GEOMETRY OPTIMIZATION CYCLE   7            *
         *************************************************************
---------------------------------
CARTESIAN COORDINATES (ANGSTROEM)
---------------------------------
  O      0.426747    0.650094   -0.209051
  O     -0.704225   -2.818873   -0.267234
  O      4.385544   -1.993858    0.211835
  O      4.660763    2.768799    0.311943
  O     -4.056172    1.721555    1.779747
  O     -5.849264    0.709097    0.097674
  C      0.106256   -1.736400    0.166725
  C     -0.333575   -0.495349   -0.636240
  C      1.592743   -2.011267   -0.083295
  C      2.401928   -0.740671   -0.002326
  C      1.780538    0.510875   -0.066230
  C     -1.798654   -0.158252   -0.479071
  C      3.798594   -0.756786    0.158061
  C      2.504692    1.706314    0.038696
  C     -2.235408    0.647702    0.583889
  C     -2.743894   -0.679015   -1.360998
  C      4.546753    0.413991    0.263311
  C      3.885987    1.646768    0.205321
  C     -3.585092    0.933091    0.766435
  C     -4.102397   -0.402934   -1.179848
  C     -4.537252    0.397632   -0.126179
  H     -0.065773   -1.516704    1.233015
  H     -0.111304   -0.691526   -1.695603
  H      1.685089   -2.481004   -1.073500
  H      1.971141   -2.744882    0.641015
  H      1.972652    2.651671   -0.021294
  H     -1.503825    1.078366    1.263804
  H     -0.412549   -3.614915    0.203878
  H     -2.428490   -1.312533   -2.184452
  H      5.626061    0.392025    0.386402
  H     -4.838736   -0.811079   -1.870824
  H      5.338831   -1.880698    0.350973
  H      4.087916    3.549416    0.252157
  H     -3.299398    2.027247    2.304065
  H     -6.386726    0.278103   -0.585201

----------------------------
CARTESIAN COORDINATES (A.U.)
----------------------------
  NO LB      ZA    FRAG     MASS         X           Y           Z
   0 O     8.0000    0    15.999    0.806434    1.228500   -0.395049
   1 O     8.0000    0    15.999   -1.330793   -5.326898   -0.504999
   2 O     8.0000    0    15.999    8.287477   -3.767846    0.400311
   3 O     8.0000    0    15.999    8.807566    5.232271    0.589487
   4 O     8.0000    0    15.999   -7.665053    3.253268    3.363235
   5 O     8.0000    0    15.999  -11.053508    1.339999    0.184576
   6 C     6.0000    0    12.011    0.200794   -3.281321    0.315064
   7 C     6.0000    0    12.011   -0.630365   -0.936074   -1.202320
   8 C     6.0000    0    12.011    3.009847   -3.800743   -0.157404
   9 C     6.0000    0    12.011    4.538986   -1.399664   -0.004395
  10 C     6.0000    0    12.011    3.364729    0.965414   -0.125156
  11 C     6.0000    0    12.011   -3.398964   -0.299052   -0.905313
  12 C     6.0000    0    12.011    7.178303   -1.430119    0.298691
  13 C     6.0000    0    12.011    4.733183    3.224466    0.073125
  14 C     6.0000    0    12.011   -4.224310    1.223980    1.103390
  15 C     6.0000    0    12.011   -5.185207   -1.283152   -2.571913
  16 C     6.0000    0    12.011    8.592119    0.782329    0.497585
  17 C     6.0000    0    12.011    7.343451    3.111940    0.388000
  18 C     6.0000    0    12.011   -6.774842    1.763287    1.448352
  19 C     6.0000    0    12.011   -7.752407   -0.761435   -2.229590
  20 C     6.0000    0    12.011   -8.574164    0.751416   -0.238443
  21 H     1.0000    0     1.008   -0.124292   -2.866155    2.330060
  22 H     1.0000    0     1.008   -0.210333   -1.306795   -3.204225
  23 H     1.0000    0     1.008    3.184356   -4.688417   -2.028621
  24 H     1.0000    0     1.008    3.724917   -5.187075    1.211343
  25 H     1.0000    0     1.008    3.727771    5.010932   -0.040240
  26 H     1.0000    0     1.008   -2.841817    2.037817    2.388243
  27 H     1.0000    0     1.008   -0.779605   -6.831200    0.385274
  28 H     1.0000    0     1.008   -4.589181   -2.480328   -4.128017
  29 H     1.0000    0     1.008   10.631715    0.740821    0.730194
  30 H     1.0000    0     1.008   -9.143886   -1.532716   -3.535346
  31 H     1.0000    0     1.008   10.088928   -3.554005    0.663244
  32 H     1.0000    0     1.008    7.725042    6.707423    0.476508
  33 H     1.0000    0     1.008   -6.234959    3.830942    4.354052
  34 H     1.0000    0     1.008  -12.069164    0.525538   -1.105870

--------------------------------
INTERNAL COORDINATES (ANGSTROEM)
--------------------------------
 O      0   0   0     0.000000000000     0.00000000     0.00000000
 O      1   0   0     3.649138966608     0.00000000     0.00000000
 O      1   2   0     4.779090727351    74.46765725     0.00000000
 O      1   2   3     4.763112556108   134.43486051   357.59304105
 O      1   2   3     5.019950208235    86.12652236   208.96695430
 O      5   1   2     2.658876904646   105.68374251   305.86812189
 C      2   1   3     1.420192496193    24.99945429    38.04542575
 C      1   2   3     1.439659729395    22.36726112   137.67483010
 C      7   2   1     1.532222148774   111.53427099   238.54667570
 C      9   7   2     1.508559433802   111.13297510   163.55529685
 C      1   2   3     1.368404552789   102.21423644   359.56816953
 C      8   1   2     1.511553611268   107.67376195   122.35065665
 C      3   1   2     1.370309853493    30.93946487   181.70344722
 C     11   1   2     1.401600413378   115.60628750   182.26293358
 C     12   8   1     1.403637941496   120.55637701   324.93513150
 C     12   8   1     1.393723936703   120.54627352   147.09609604
 C     13   3   1     1.393390830707   121.70777770   179.58439432
 C      4   1   2     1.367698798296    28.71747585     2.74438965
 C      5   1   2     1.367622999787    43.59801918   316.85988147
 C     16  12   8     1.398058597504   120.21495486   177.62375078
 C      6   5   1     1.366929638609    62.81138123     8.42951266
 H      7   2   1     1.102195545931   111.00591244   115.25839656
 H      8   1   2     1.100063429394   108.71911561   241.03777290
 H      9   7   2     1.099857613286   107.75683034    41.38581450
 H      9   7   2     1.098180652075   110.27336136   285.84077247
 H     14  11   1     1.086446418473   119.01256279   358.56901579
 H     15  12   8     1.087644133437   119.43673887     3.57324216
 H      2   1   3     0.969899525770   132.78701974    37.08682376
 H     16  12   8     1.085772730420   120.06010018   358.45673730
 H     17  13   3     1.086526336799   121.66406725     0.36216386
 H     20  16  12     1.089139750560   120.04901525   179.98378584
 H      3   1   2     0.970010587343   139.65582767   184.43620658
 H      4   1   2     0.970098498706    79.99593740   182.40477908
 H      5   1   2     0.970083803555    65.46389555   125.10131671
 H      6   5   1     0.970020083752   171.18914321     7.88661288

---------------------------
INTERNAL COORDINATES (A.U.)
---------------------------
 O      0   0   0     0.000000000000     0.00000000     0.00000000
 O      1   0   0     6.895873271510     0.00000000     0.00000000
 O      1   2   0     9.031172643857    74.46765725     0.00000000
 O      1   2   3     9.000978276086   134.43486051   357.59304105
 O      1   2   3     9.486331099486    86.12652236   208.96695430
 O      5   1   2     5.024549173590   105.68374251   305.86812189
 C      2   1   3     2.683774875255    24.99945429    38.04542575
 C      1   2   3     2.720562614591    22.36726112   137.67483010
 C      7   2   1     2.895480237511   111.53427099   238.54667570
 C      9   7   2     2.850764186628   111.13297510   163.55529685
 C      1   2   3     2.585909845183   102.21423644   359.56816953
 C      8   1   2     2.856422362035   107.67376195   122.35065665
 C      3   1   2     2.589510341716    30.93946487   181.70344722
 C     11   1   2     2.648640930475   115.60628750   182.26293358
 C     12   8   1     2.652491300608   120.55637701   324.93513150
 C     12   8   1     2.633756546659   120.54627352   147.09609604
 C     13   3   1     2.633127067552   121.70777770   179.58439432
 C      4   1   2     2.584576162473    28.71747585     2.74438965
 C      5   1   2     2.584432924049    43.59801918   316.85988147
 C     16  12   8     2.641947868456   120.21495486   177.62375078
 C      6   5   1     2.583122661310    62.81138123     8.42951266
 H      7   2   1     2.082847727838   111.00591244   115.25839656
 H      8   1   2     2.078818611497   108.71911561   241.03777290
 H      9   7   2     2.078429675418   107.75683034    41.38581450
 H      9   7   2     2.075260677993   110.27336136   285.84077247
 H     14  11   1     2.053086190093   119.01256279   358.56901579
 H     15  12   8     2.055349543362   119.43673887     3.57324216
 H      2   1   3     1.832844481125   132.78701974    37.08682376
 H     16  12   8     2.051813104173   120.06010018   358.45673730
 H     17  13   3     2.053237213842   121.66406725     0.36216386
 H     20  16  12     2.058175850125   120.04901525   179.98378584
 H      3   1   2     1.833054357083   139.65582767   184.43620658
 H      4   1   2     1.833220485482    79.99593740   182.40477908
 H      5   1   2     1.833192715671    65.46389555   125.10131671
 H      6   5   1     1.833072302695   171.18914321     7.88661288

------------------------------------------------------------------------------
                   ___                                                        
                  /   \      - P O W E R E D   B Y -                         
                 /     \                                                     
                 |  |  |   _    _      __       _____    __    __             
                 |  |  |  | |  | |    /  \     |  _  \  |  |  /  |          
                  \  \/   | |  | |   /    \    | | | |  |  | /  /          
                 / \  \   | |__| |  /  /\  \   | |_| |  |  |/  /          
                |  |  |   |  __  | /  /__\  \  |    /   |      \           
                |  |  |   | |  | | |   __   |  |    \   |  |\   \          
                \     /   | |  | | |  |  |  |  | |\  \  |  | \   \       
                 \___/    |_|  |_| |__|  |__|  |_| \__\ |__|  \__/        
                                                                              
                      - O R C A' S   B I G   F R I E N D -                    
                                      &                                       
                       - I N T E G R A L  F E E D E R -                       
                                                                              
 v1 FN, 2020, v2 2021, v3 2022-2024                                           
------------------------------------------------------------------------------


----------------------
SHARK INTEGRAL PACKAGE
----------------------

Number of atoms                             ...     35
Number of basis functions                   ...    322
Number of shells                            ...    154
Maximum angular momentum                    ...      2
Integral batch strategy                     ... SHARK/LIBINT Hybrid
RI-J (if used) integral strategy            ... SPLIT-RIJ (Revised 2003 algorithm where possible)
Printlevel                                  ...      1
Contraction scheme used                     ... SEGMENTED contraction
Prescreening option                         ... SCHWARTZ
   Thresh                                   ... 2.500e-11
   Tcut                                     ... 2.500e-12
   Tpresel                                  ... 2.500e-12 
Coulomb Range Separation                    ... NOT USED
Exchange Range Separation                   ... NOT USED
Multipole approximations                    ... NOT USED
Finite Nucleus Model                        ... NOT USED
CABS basis                                  ... NOT available
Auxiliary Coulomb fitting basis             ... AVAILABLE
   # of basis functions in Aux-J            ...   1183
   # of shells in Aux-J                     ...    385
   Maximum angular momentum in Aux-J        ...      4
Auxiliary J/K fitting basis                 ... NOT available
Auxiliary Correlation fitting basis         ... NOT available
Auxiliary 'external' fitting basis          ... NOT available

Checking pre-screening integrals            ... done (  0.0 sec) Dimension = 154
   => SHARK Basis and OBASIS are compatible. Storing Pre-screening
Shell pair information
Shell pair cut-off parameter TPreSel        ...   2.5e-12
Total number of shell pairs                 ...     11935
Shell pairs after pre-screening             ...      8453
Total number of primitive shell pairs       ...     69489
Primitive shell pairs kept                  ...     27596
          la=0 lb=0:   2815 shell pairs
          la=1 lb=0:   2886 shell pairs
          la=1 lb=1:    743 shell pairs
          la=2 lb=0:   1216 shell pairs
          la=2 lb=1:    651 shell pairs
          la=2 lb=2:    142 shell pairs

Checking whether 4 symmetric matrices of dimension 322 fit in memory
:Max Core in MB      =   4096.00
 MB in use           =     15.95
 MB left             =   4080.05
 MB needed           =      1.59
 Data fit in memory  = YES
Calculating RI/J V-Matrix + Cholesky decomp.... done (  0.3 sec)
Calculating Nuclear repulsion               ... done (  0.0 sec) ENN=   1638.981825953565 Eh

Diagonalization of the overlap matrix:
Smallest eigenvalue                        ... 3.961e-04
Time for diagonalization                   ...    0.011 sec
Threshold for overlap eigenvalues          ... 1.000e-07
Number of eigenvalues below threshold      ... 0
Time for construction of square roots      ...    0.021 sec
Total time needed                          ...    0.053 sec

-------------------
DFT GRID GENERATION
-------------------

General Integration Accuracy     IntAcc      ... 4.388
Radial Grid Type                 RadialGrid  ... OptM3 with GC (2021)
Angular Grid (max. ang.)         AngularGrid ... 4 (Lebedev-302)
Angular grid pruning method      GridPruning ... 4 (adaptive)
Weight generation scheme         WeightScheme... mBecke (2022)
Basis function cutoff            BFCut       ... 1.0000e-11
Integration weight cutoff        WCut        ... 1.0000e-14
Partially contracted basis set               ... off
Rotationally invariant grid construction     ... off
Angular grids for H and He will be reduced by one unit

Total number of grid points                  ...   170393
Total number of batches                      ...     2677
Average number of points per batch           ...       63
Average number of grid points per atom       ...     4868

--------------------
COSX GRID GENERATION
--------------------

GRIDX 1
-------
General Integration Accuracy     IntAcc      ... 3.816
Radial Grid Type                 RadialGrid  ... OptM3 with GC (2021)
Angular Grid (max. ang.)         AngularGrid ... 1 (Lebedev-50)
Angular grid pruning method      GridPruning ... 4 (adaptive)
Weight generation scheme         WeightScheme... mBecke (2022)
Basis function cutoff            BFCut       ... 1.0000e-11
Integration weight cutoff        WCut        ... 1.0000e-14
Partially contracted basis set               ... on
Rotationally invariant grid construction     ... off
Angular grids for H and He will be reduced by one unit

Total number of grid points                  ...    21679
Total number of batches                      ...      189
Average number of points per batch           ...      114
Average number of grid points per atom       ...      619
UseSFitting                                  ... on

GRIDX 2
-------
General Integration Accuracy     IntAcc      ... 4.020
Radial Grid Type                 RadialGrid  ... OptM3 with GC (2021)
Angular Grid (max. ang.)         AngularGrid ... 2 (Lebedev-110)
Angular grid pruning method      GridPruning ... 4 (adaptive)
Weight generation scheme         WeightScheme... mBecke (2022)
Basis function cutoff            BFCut       ... 1.0000e-11
Integration weight cutoff        WCut        ... 1.0000e-14
Partially contracted basis set               ... on
Rotationally invariant grid construction     ... off
Angular grids for H and He will be reduced by one unit

Total number of grid points                  ...    47495
Total number of batches                      ...      388
Average number of points per batch           ...      122
Average number of grid points per atom       ...     1357
UseSFitting                                  ... on

GRIDX 3
-------
General Integration Accuracy     IntAcc      ... 4.338
Radial Grid Type                 RadialGrid  ... OptM3 with GC (2021)
Angular Grid (max. ang.)         AngularGrid ... 3 (Lebedev-194)
Angular grid pruning method      GridPruning ... 4 (adaptive)
Weight generation scheme         WeightScheme... mBecke (2022)
Basis function cutoff            BFCut       ... 1.0000e-11
Integration weight cutoff        WCut        ... 1.0000e-14
Partially contracted basis set               ... on
Rotationally invariant grid construction     ... off
Angular grids for H and He will be reduced by one unit

Total number of grid points                  ...   104051
Total number of batches                      ...      830
Average number of points per batch           ...      125
Average number of grid points per atom       ...     2973
UseSFitting                                  ... on
Grids setup in   6.1 sec
Initializing property integral containers    ... done (  0.0 sec)

SHARK setup successfully completed in   7.0 seconds

Maximum memory used throughout the entire STARTUP-calculation: 72.8 MB
Occupation numbers will be reassigned to an Aufbau configuration
             **** ENERGY FILE WAS UPDATED (Catechin.en.tmp) ****
Finished Guess after   0.6 sec
Maximum memory used throughout the entire GUESS-calculation: 26.1 MB
----------------------------------------D-I-I-S--------------------------------------------
Iteration    Energy (Eh)           Delta-E    RMSDP     MaxDP     DIISErr   Damp  Time(sec)
-------------------------------------------------------------------------------------------
               ***  Starting incremental Fock matrix formation  ***
    1    -1030.7389288655333530     0.00e+00  9.10e-05  2.92e-03  1.56e-02  0.700  19.5
    2    -1030.7396338617888887    -7.05e-04  8.70e-05  2.82e-03  1.25e-02  0.700   9.0
                               ***Turning on AO-DIIS***
    3    -1030.7402014275801321    -5.68e-04  7.45e-05  2.41e-03  9.45e-03  0.700   9.1
    4    -1030.7406246929670033    -4.23e-04  1.93e-04  6.15e-03  6.89e-03  0.000   9.0
                              *** Initializing SOSCF ***
---------------------------------------S-O-S-C-F--------------------------------------
Iteration    Energy (Eh)           Delta-E    RMSDP     MaxDP     MaxGrad    Time(sec)
--------------------------------------------------------------------------------------
    5    -1030.7416949265909807    -1.07e-03  1.31e-05  3.28e-04  3.77e-04     9.8
               *** Restarting incremental Fock matrix formation ***
    6    -1030.7416959047707223    -9.78e-07  8.99e-06  2.55e-04  7.12e-05    19.7
    7    -1030.7416964251062836    -5.20e-07  4.41e-06  1.84e-04  2.27e-05    11.1
    8    -1030.7416963911316543     3.40e-08  2.57e-06  1.14e-04  3.83e-05    10.2
    9    -1030.7416964719902808    -8.09e-08  5.46e-07  2.36e-05  4.94e-06     9.7
   10    -1030.7416964713499965     6.40e-10  3.41e-07  1.48e-05  7.36e-06     7.9
                 **** Energy Check signals convergence ****

               *****************************************************
               *                     SUCCESS                       *
               *           SCF CONVERGED AFTER  10 CYCLES          *
               *****************************************************

Recomputing exchange energy using gridx3       ... done (   28.096 sec)
Old exchange energy                            :    -26.464121136 Eh
New exchange energy                            :    -26.464139791 Eh
Exchange energy change after final integration :     -0.000018655 Eh
Total energy after final integration           :  -1030.741715123 Eh
             **** ENERGY FILE WAS UPDATED (Catechin.en.tmp) ****

----------------
TOTAL SCF ENERGY
----------------

Total Energy       :      -1030.74171512323846 Eh          -28047.90800 eV

Components:
Nuclear Repulsion  :       1638.98182595356525 Eh           44598.96285 eV
Electronic Energy  :      -2669.72352242142915 Eh          -72646.87034 eV
One Electron Energy:      -4664.98108111177589 Eh         -126940.58875 eV
Two Electron Energy:       1995.25755869034697 Eh           54293.71841 eV

Virial components:
Potential Energy   :      -2055.64291230761319 Eh          -55936.88742 eV
Kinetic Energy     :       1024.90119718437472 Eh           27888.97942 eV
Virial Ratio       :          2.00569861558842

DFT components:
N(Alpha)           :       75.999975110102 electrons
N(Beta)            :       75.999975110102 electrons
N(Total)           :      151.999950220203 electrons
E(X)               :     -105.196865090522 Eh       
E(C)               :       -6.208147984422 Eh       
E(XC)              :     -111.405013074945 Eh       

---------------
SCF CONVERGENCE
---------------

  Last Energy change         ...   -6.4028e-10  Tolerance :   1.0000e-08
  Last MAX-Density change    ...    1.4765e-05  Tolerance :   1.0000e-07
  Last RMS-Density change    ...    3.4078e-07  Tolerance :   5.0000e-09
  Last DIIS Error            ...    3.7699e-04  Tolerance :   5.0000e-07
  Last Orbital Gradient      ...    7.3625e-06  Tolerance :   1.0000e-05
  Last Orbital Rotation      ...    1.0867e-05  Tolerance :   1.0000e-05


Total SCF time: 0 days 0 hours 2 min 33 sec 
Finished LeanSCF after 153.5 sec

Maximum memory used throughout the entire LEANSCF-calculation: 50.5 MB

------------------------------------------------------------------------------
                         ORCA PROPERTY INTEGRAL CALCULATIONS
------------------------------------------------------------------------------

GBWName                                   ... Catechin.gbw
Number of atoms                           ...     35
Number of basis functions                 ...    322
Max core memory                           ...   4096 MB

Dipole integrals                          ... YES
Quadrupole integrals                      ...  NO
Linear momentum integrals                 ...  NO
Angular momentum integrals                ...  NO
Higher moments length integrals           ...  NO
Higher moments velocity integrals         ...  NO
Kinetic energy integrals                  ...  NO
GIAO right hand sides                     ...  NO
GIAO dipole derivative integrals          ...  NO
SOC integrals                             ...  NO
EPR diamagnetic integrals (GIAO)          ...  NO
EPR gauge integrals                       ...  NO
Field gradient integrals                  ...  NO (   0 nuclei)
Spin-dipole/Fermi contact integrals       ...  NO (   0 nuclei)
Contact density integrals                 ...  NO (   0 nuclei)
Nucleus-orbit integrals                   ...  NO (   0 nuclei)
Geometric perturbations                   ...  NO (  35 nuclei)

Choice of electric origin   ... Center of mass
Position of electric origin ... ( -0.0075,  0.0180,  0.0583) 
Choice of magnetic origin   ... GIAO
Position of magnetic origin ... (  0.0000,  0.0000,  0.0000) 

Calculating integrals                     ... Electric Dipole (Length)     done (  0.1 sec)

Property integrals calculated in   0.1 sec

Maximum memory used throughout the entire PROPINT-calculation: 25.9 MB

-------------------------   --------------------
FINAL SINGLE POINT ENERGY     -1030.741715123238
-------------------------   --------------------

------------------------------------------------------------------------------
                         ORCA SCF GRADIENT CALCULATION
------------------------------------------------------------------------------

Nuc. rep. gradient        (SHARK) ... done (  0.0 sec)
HCore & Overlap gradient  (SHARK) ... done (  0.9 sec)
Split-RIJ-J gradient      (SHARK) ... done (  4.7 sec)
COSX-gradient                     ... done ( 63.2 sec)
XC gradient                       ... done ( 13.8 sec)

------------------
CARTESIAN GRADIENT
------------------

   1   O   :    0.000018303    0.000482829    0.000015957
   2   O   :    0.000671665    0.000138754    0.000229651
   3   O   :    0.000122482    0.000015487   -0.000032763
   4   O   :    0.000042702   -0.000084729   -0.000027793
   5   O   :    0.000068251   -0.000255488   -0.000272150
   6   O   :    0.000362912   -0.000124833   -0.000091295
   7   C   :   -0.000450309   -0.000754614    0.000142893
   8   C   :    0.000030411    0.000597328   -0.000050129
   9   C   :    0.000124907    0.000373004   -0.000242936
  10   C   :   -0.000520854   -0.000338575    0.000038078
  11   C   :   -0.000062929   -0.000402427   -0.000067773
  12   C   :    0.000000154   -0.000642444   -0.000983720
  13   C   :    0.000138549    0.000467206    0.000046339
  14   C   :    0.000414920    0.000253908    0.000104073
  15   C   :   -0.000449702    0.000374367    0.000677271
  16   C   :    0.000427389    0.000109187    0.000354922
  17   C   :    0.000095346   -0.000254185    0.000029179
  18   C   :   -0.000442960   -0.000130067   -0.000061185
  19   C   :    0.000993477    0.000424626    0.000685805
  20   C   :   -0.000301902    0.000197262    0.000222634
  21   C   :   -0.000614261   -0.000599975   -0.000895323
  22   H   :   -0.000022951    0.000139356   -0.000074650
  23   H   :    0.000152038   -0.000096290    0.000057828
  24   H   :   -0.000142687   -0.000074450    0.000033101
  25   H   :    0.000139146    0.000069659    0.000002975
  26   H   :   -0.000086765   -0.000079546   -0.000020500
  27   H   :   -0.000077036    0.000057324   -0.000019406
  28   H   :   -0.000261957   -0.000126453   -0.000044677
  29   H   :   -0.000002358    0.000009311   -0.000047056
  30   H   :   -0.000038284   -0.000004776   -0.000008477
  31   H   :   -0.000194444    0.000140181    0.000148435
  32   H   :    0.000021862   -0.000059275    0.000031565
  33   H   :   -0.000006101    0.000041397    0.000023806
  34   H   :   -0.000046635    0.000083493    0.000056331
  35   H   :   -0.000102381    0.000053450    0.000038990

Difference to translation invariance:
           :   -0.0000000001    0.0000000000   -0.0000000000

Difference to rotation invariance:
           :    0.0000121039   -0.0000361169   -0.0000863628

Norm of the Cartesian gradient     ...    0.0031598378
RMS gradient                       ...    0.0003083686
MAX gradient                       ...    0.0009934768

-------
TIMINGS
-------

Total SCF gradient time     ....       82.679 sec

Densities                   ....       0.002 sec  (  0.0%)
One electron gradient       ....       0.944 sec  (  1.1%)
RI-J Coulomb gradient       ....       4.687 sec  (  5.7%)
COSX gradient               ....      63.214 sec  ( 76.5%)
XC gradient                 ....      13.828 sec  ( 16.7%)

Maximum memory used throughout the entire SCFGRAD-calculation: 56.7 MB
------------------------------------------------------------------------------
                         ORCA GEOMETRY RELAXATION STEP
------------------------------------------------------------------------------

Reading the OPT-File                    .... done
Getting information on internals        .... done
Copying old internal coords+grads       .... done
Making the new internal coordinates     .... (2022 redundants) done
Validating the new internal coordinates .... (2022 redundants) done
Calculating the B-matrix                .... done
Calculating the G,G- and P matrices     .... done
Transforming gradient to internals      .... done
Projecting the internal gradient        .... done
Number of atoms                         ....  35
Number of internal coordinates          .... 183
Current Energy                          .... -1030.741715123 Eh
Current gradient norm                   ....     0.003159838 Eh/bohr
Maximum allowed component of the step   ....  0.300
Current trust radius                    ....  0.450
Updating the Hessian (BFGS)             .... done
Forming the augmented Hessian           .... done
Diagonalizing the augmented Hessian     .... done
Last element of RFO vector              ....  0.999397407
Lowest eigenvalues of augmented Hessian:
 -0.000020381  0.002326976  0.014942106  0.016594708  0.018856281
Length of the computed step             ....  0.034731501
The final length of the internal step   ....  0.034731501
Converting the step to Cartesian space:
 Initial RMS(Int)=    0.0025674264
Transforming coordinates:
 Iter   0:  RMS(Cart)=    0.0102803360 RMS(Int)=    0.6568010693
done
Storing new coordinates                 .... done
The predicted energy change is          ....    -0.000010203
Previously predicted energy change      ....    -0.000032898
Actually observed energy change         ....    -0.000042450
Ratio of predicted to observed change   ....     1.290358733
New trust radius                        ....     0.450000000

                                .--------------------.
          ----------------------|Geometry convergence|-------------------------
          Item                value                   Tolerance       Converged
          ---------------------------------------------------------------------
          Energy change      -0.0000424503            0.0000050000      NO
          RMS gradient        0.0001585979            0.0001000000      NO
          MAX gradient        0.0007618007            0.0003000000      NO
          RMS step            0.0025674264            0.0020000000      NO
          MAX step            0.0136096032            0.0040000000      NO
          -------------------------------------------------------------------------
          ........................................................
          Max(Bonds)      0.0013      Max(Angles)    0.13
          Max(Dihed)        0.78      Max(Improp)    0.00
          ---------------------------------------------------------------------

The optimization has not yet converged - more geometry cycles are needed


    ---------------------------------------------------------------------------
                         Redundant Internal Coordinates
                            (Angstroem and degrees)

        Definition                    Value    dE/dq     Step     New-Value
    ----------------------------------------------------------------------------
     1. B(C   6,O   1)                1.4202 -0.000300  0.0005    1.4207   
     2. B(C   7,O   0)                1.4397  0.000143 -0.0006    1.4391   
     3. B(C   7,C   6)                1.5422  0.000447 -0.0008    1.5414   
     4. B(C   8,C   6)                1.5322 -0.000078  0.0002    1.5324   
     5. B(C   9,C   8)                1.5086 -0.000382  0.0005    1.5091   
     6. B(C  10,C   9)                1.3988 -0.000076 -0.0000    1.3988   
     7. B(C  10,O   0)                1.3684 -0.000075  0.0002    1.3686   
     8. B(C  11,C   7)                1.5116 -0.000113  0.0007    1.5122   
     9. B(C  12,C   9)                1.4059  0.000228 -0.0004    1.4056   
    10. B(C  12,O   2)                1.3703  0.000101 -0.0002    1.3701   
    11. B(C  13,C  10)                1.4016  0.000105 -0.0001    1.4015   
    12. B(C  14,C  11)                1.4036  0.000683 -0.0009    1.4028   
    13. B(C  15,C  11)                1.3937 -0.000222  0.0005    1.3942   
    14. B(C  16,C  12)                1.3934 -0.000329  0.0004    1.3938   
    15. B(C  17,O   3)                1.3677 -0.000015 -0.0000    1.3677   
    16. B(C  17,C  16)                1.3999 -0.000029 -0.0001    1.3998   
    17. B(C  17,C  13)                1.3926 -0.000292  0.0003    1.3929   
    18. B(C  18,C  14)                1.3916 -0.000536  0.0008    1.3924   
    19. B(C  18,O   4)                1.3676 -0.000267  0.0004    1.3680   
    20. B(C  19,C  15)                1.3981  0.000346 -0.0005    1.3976   
    21. B(C  20,C  19)                1.3929 -0.000581  0.0008    1.3937   
    22. B(C  20,C  18)                1.4107  0.000762 -0.0013    1.4094   
    23. B(C  20,O   5)                1.3669 -0.000275  0.0004    1.3673   
    24. B(H  21,C   6)                1.1022 -0.000041  0.0000    1.1022   
    25. B(H  22,C   7)                1.1001 -0.000008  0.0000    1.1001   
    26. B(H  23,C   8)                1.0999 -0.000010  0.0000    1.0999   
    27. B(H  24,C   8)                1.0982  0.000003  0.0000    1.0982   
    28. B(H  25,C  13)                1.0864 -0.000025  0.0001    1.0865   
    29. B(H  26,C  14)                1.0876 -0.000041 -0.0000    1.0876   
    30. B(H  27,O   1)                0.9699  0.000004  0.0000    0.9699   
    31. B(H  28,C  15)                1.0858  0.000030 -0.0001    1.0857   
    32. B(H  29,C  16)                1.0865 -0.000039  0.0001    1.0866   
    33. B(H  30,C  19)                1.0891 -0.000015 -0.0000    1.0891   
    34. B(H  31,O   2)                0.9700  0.000019 -0.0000    0.9700   
    35. B(H  32,O   3)                0.9701  0.000036 -0.0000    0.9701   
    36. B(H  33,O   4)                0.9701  0.000020 -0.0001    0.9700   
    37. B(H  34,O   5)                0.9700  0.000006 -0.0001    0.9700   
    38. A(C   7,O   0,C  10)          118.20 -0.000368    0.06    118.26   
    39. A(C   6,O   1,H  27)          107.79  0.000497   -0.13    107.66   
    40. A(C  12,O   2,H  31)          108.74  0.000111   -0.03    108.71   
    41. A(C  17,O   3,H  32)          108.71  0.000040   -0.00    108.71   
    42. A(C  18,O   4,H  33)          108.27  0.000192   -0.03    108.23   
    43. A(C  20,O   5,H  34)          108.38  0.000222   -0.04    108.34   
    44. A(O   1,C   6,C   8)          111.53 -0.000157    0.00    111.54   
    45. A(C   8,C   6,H  21)          110.18  0.000180   -0.04    110.15   
    46. A(C   7,C   6,C   8)          109.64 -0.000202    0.07    109.71   
    47. A(O   1,C   6,C   7)          106.95  0.000287   -0.00    106.95   
    48. A(C   7,C   6,H  21)          107.38 -0.000135    0.06    107.44   
    49. A(O   1,C   6,H  21)          111.01  0.000024   -0.08    110.92   
    50. A(C   6,C   7,C  11)          113.69 -0.000238    0.02    113.71   
    51. A(C  11,C   7,H  22)          109.62  0.000214   -0.08    109.54   
    52. A(C   6,C   7,H  22)          107.47 -0.000079    0.06    107.53   
    53. A(O   0,C   7,C  11)          107.67  0.000009    0.01    107.68   
    54. A(O   0,C   7,H  22)          108.72 -0.000059   -0.02    108.70   
    55. A(O   0,C   7,C   6)          109.58  0.000159    0.00    109.58   
    56. A(C   6,C   8,C   9)          111.13  0.000026    0.01    111.14   
    57. A(C   9,C   8,H  24)          110.02 -0.000206    0.06    110.09   
    58. A(C   6,C   8,H  24)          110.27  0.000128   -0.05    110.22   
    59. A(C   9,C   8,H  23)          111.28  0.000113   -0.09    111.19   
    60. A(C   6,C   8,H  23)          107.76 -0.000098    0.06    107.82   
    61. A(H  23,C   8,H  24)          106.23  0.000044    0.01    106.25   
    62. A(C   8,C   9,C  10)          120.85  0.000157   -0.04    120.82   
    63. A(C  10,C   9,C  12)          117.18 -0.000131    0.04    117.22   
    64. A(C   8,C   9,C  12)          121.96 -0.000026   -0.00    121.96   
    65. A(C   9,C  10,C  13)          122.02 -0.000012   -0.02    122.00   
    66. A(O   0,C  10,C  13)          115.61 -0.000153    0.02    115.63   
    67. A(O   0,C  10,C   9)          122.36  0.000165   -0.01    122.36   
    68. A(C  14,C  11,C  15)          118.86  0.000035   -0.00    118.86   
    69. A(C   7,C  11,C  15)          120.55  0.000340   -0.11    120.44   
    70. A(C   7,C  11,C  14)          120.56 -0.000376    0.12    120.68   
    71. A(O   2,C  12,C   9)          116.13  0.000029    0.03    116.16   
    72. A(C   9,C  12,C  16)          122.17  0.000117   -0.04    122.13   
    73. A(O   2,C  12,C  16)          121.71 -0.000146    0.01    121.71   
    74. A(C  17,C  13,H  25)          121.98  0.000127   -0.03    121.94   
    75. A(C  10,C  13,H  25)          119.01 -0.000112    0.02    119.03   
    76. A(C  10,C  13,C  17)          119.01 -0.000016    0.01    119.02   
    77. A(C  11,C  14,C  18)          121.26 -0.000103   -0.00    121.25   
    78. A(C  11,C  14,H  26)          119.44  0.000125   -0.04    119.39   
    79. A(C  18,C  14,H  26)          119.29 -0.000023    0.05    119.33   
    80. A(C  11,C  15,C  19)          120.21  0.000022   -0.00    120.21   
    81. A(C  19,C  15,H  28)          119.72 -0.000027    0.00    119.72   
    82. A(C  11,C  15,H  28)          120.06  0.000004   -0.00    120.06   
    83. A(C  17,C  16,H  29)          119.43  0.000045   -0.02    119.41   
    84. A(C  12,C  16,H  29)          121.66  0.000034   -0.00    121.66   
    85. A(C  12,C  16,C  17)          118.91 -0.000079    0.02    118.93   
    86. A(C  13,C  17,C  16)          120.72  0.000120   -0.02    120.69   
    87. A(O   3,C  17,C  16)          116.86 -0.000149    0.04    116.90   
    88. A(O   3,C  17,C  13)          122.42  0.000029   -0.02    122.40   
    89. A(C  14,C  18,C  20)          119.59 -0.000030    0.02    119.61   
    90. A(O   4,C  18,C  20)          117.08 -0.000177    0.07    117.15   
    91. A(O   4,C  18,C  14)          123.33  0.000207   -0.10    123.24   
    92. A(C  20,C  19,H  30)          118.96 -0.000269    0.09    119.05   
    93. A(C  15,C  19,H  30)          120.05  0.000310   -0.08    119.97   
    94. A(C  15,C  19,C  20)          120.99 -0.000041   -0.01    120.98   
    95. A(O   5,C  20,C  18)          117.24 -0.000155    0.07    117.31   
    96. A(C  18,C  20,C  19)          119.08  0.000117   -0.01    119.07   
    97. A(O   5,C  20,C  19)          123.68  0.000038   -0.06    123.62   
    98. D(C   8,C   6,O   1,H  27)     57.81  0.000164   -0.67     57.14   
    99. D(H  21,C   6,O   1,H  27)    -65.48  0.000026   -0.56    -66.04   
   100. D(C   7,C   6,O   1,H  27)    177.67  0.000008   -0.58    177.09   
   101. D(O   0,C   7,C   6,O   1)    178.19  0.000037    0.06    178.26   
   102. D(C  11,C   7,O   0,C  10)    170.13 -0.000142   -0.00    170.12   
   103. D(H  22,C   7,O   0,C  10)    -71.19  0.000085   -0.10    -71.28   
   104. D(C  11,C   7,C   6,O   1)     57.67  0.000072    0.03     57.70   
   105. D(O   0,C   7,C   6,C   8)    -60.73 -0.000094    0.11    -60.62   
   106. D(C  11,C   7,C   6,H  21)    -61.55 -0.000038    0.10    -61.44   
   107. D(C  11,C   7,C   6,C   8)    178.74 -0.000060    0.08    178.82   
   108. D(C   6,C   7,O   0,C  10)     46.01  0.000046   -0.04     45.97   
   109. D(O   0,C   7,C   6,H  21)     58.98 -0.000072    0.13     59.11   
   110. D(C   9,C   8,C   6,H  21)    -72.69  0.000104   -0.14    -72.83   
   111. D(C   9,C   8,C   6,O   1)    163.56  0.000054   -0.02    163.54   
   112. D(C   9,C   8,C   6,C   7)     45.29 -0.000076   -0.06     45.23   
   113. D(H  23,C   8,C   6,O   1)     41.39 -0.000037    0.05     41.44   
   114. D(H  23,C   8,C   6,C   7)    -76.88 -0.000168    0.01    -76.87   
   115. D(H  23,C   8,C   6,H  21)    165.14  0.000013   -0.07    165.07   
   116. D(C  12,C   9,C   8,C   6)    162.90 -0.000031    0.09    162.99   
   117. D(C  10,C   9,C   8,H  23)    103.90 -0.000047    0.01    103.91   
   118. D(C  10,C   9,C   8,H  24)   -138.63 -0.000053    0.01   -138.62   
   119. D(C  12,C   9,C   8,H  23)    -77.01 -0.000062    0.11    -76.89   
   120. D(C  10,C   9,C   8,C   6)    -16.20 -0.000016   -0.01    -16.21   
   121. D(C  13,C  10,C   9,C  12)     -0.70 -0.000014    0.00     -0.69   
   122. D(C  13,C  10,C   9,C   8)    178.44 -0.000028    0.10    178.54   
   123. D(O   0,C  10,C   9,C  12)   -179.41 -0.000022   -0.01   -179.42   
   124. D(O   0,C  10,C   9,C   8)     -0.28 -0.000036    0.09     -0.19   
   125. D(C  13,C  10,O   0,C   7)    165.51  0.000014   -0.08    165.43   
   126. D(C   9,C  10,O   0,C   7)    -15.70  0.000023   -0.07    -15.77   
   127. D(C  14,C  11,C   7,C   6)     86.53  0.000023    0.75     87.28   
   128. D(C  14,C  11,C   7,O   0)    -35.06 -0.000032    0.73    -34.34   
   129. D(C  15,C  11,C   7,C   6)    -91.31  0.000061    0.53    -90.78   
   130. D(C  15,C  11,C   7,O   0)    147.10  0.000007    0.51    147.60   
   131. D(C  14,C  11,C   7,H  22)   -153.17 -0.000085    0.78   -152.39   
   132. D(C  16,C  12,C   9,C  10)      0.59  0.000012   -0.00      0.59   
   133. D(C  16,C  12,C   9,C   8)   -178.54  0.000024   -0.10   -178.64   
   134. D(O   2,C  12,C   9,C  10)   -179.71  0.000008   -0.00   -179.71   
   135. D(O   2,C  12,C   9,C   8)      1.16  0.000021   -0.10      1.06   
   136. D(C  16,C  12,O   2,H  31)      1.45  0.000024   -0.04      1.41   
   137. D(C   9,C  12,O   2,H  31)   -178.25  0.000027   -0.05   -178.29   
   138. D(H  25,C  13,C  10,C   9)    179.77 -0.000003    0.02    179.79   
   139. D(C  17,C  13,C  10,O   0)    179.11  0.000023    0.00    179.11   
   140. D(C  17,C  13,C  10,C   9)      0.31  0.000011   -0.01      0.30   
   141. D(H  25,C  13,C  10,O   0)     -1.43  0.000009    0.03     -1.41   
   142. D(H  26,C  14,C  11,C  15)   -178.55  0.000018   -0.04   -178.59   
   143. D(H  26,C  14,C  11,C   7)      3.57  0.000049   -0.26      3.32   
   144. D(C  18,C  14,C  11,C  15)     -0.11  0.000001    0.04     -0.07   
   145. D(C  18,C  14,C  11,C   7)   -177.98  0.000032   -0.17   -178.16   
   146. D(H  28,C  15,C  11,C  14)   -179.42 -0.000007    0.02   -179.40   
   147. D(H  28,C  15,C  11,C   7)     -1.54 -0.000054    0.23     -1.31   
   148. D(C  19,C  15,C  11,C  14)     -0.25  0.000001   -0.03     -0.28   
   149. D(C  19,C  15,C  11,C   7)    177.62 -0.000045    0.19    177.81   
   150. D(H  29,C  16,C  12,C   9)   -179.96 -0.000000   -0.01   -179.97   
   151. D(H  29,C  16,C  12,O   2)      0.36  0.000003   -0.01      0.35   
   152. D(C  17,C  16,C  12,C   9)     -0.10 -0.000005    0.00     -0.10   
   153. D(C  17,C  16,C  12,O   2)   -179.78 -0.000002    0.00   -179.78   
   154. D(C  16,C  17,C  13,H  25)   -179.23  0.000013   -0.02   -179.25   
   155. D(C  16,C  17,C  13,C  10)      0.21 -0.000003    0.01      0.22   
   156. D(O   3,C  17,C  13,H  25)      0.39  0.000008   -0.01      0.38   
   157. D(O   3,C  17,C  13,C  10)    179.83 -0.000008    0.01    179.84   
   158. D(C  16,C  17,O   3,H  32)    179.68  0.000019   -0.06    179.62   
   159. D(O   3,C  17,C  16,C  12)   -179.95  0.000004   -0.01   -179.96   
   160. D(C  13,C  17,O   3,H  32)      0.04  0.000022   -0.06     -0.02   
   161. D(C  13,C  17,C  16,H  29)    179.55 -0.000005    0.01    179.55   
   162. D(C  13,C  17,C  16,C  12)     -0.31 -0.000000   -0.00     -0.32   
   163. D(O   3,C  17,C  16,H  29)     -0.10 -0.000001    0.00     -0.09   
   164. D(C  20,C  18,C  14,H  26)    178.85 -0.000011    0.03    178.89   
   165. D(C  20,C  18,C  14,C  11)      0.41  0.000003   -0.05      0.36   
   166. D(O   4,C  18,C  14,H  26)     -0.99 -0.000015    0.05     -0.94   
   167. D(O   4,C  18,C  14,C  11)   -179.44  0.000000   -0.03   -179.47   
   168. D(C  20,C  18,O   4,H  33)   -179.29  0.000024   -0.07   -179.36   
   169. D(C  14,C  18,O   4,H  33)      0.56  0.000028   -0.08      0.47   
   170. D(H  30,C  19,C  15,H  28)     -0.85  0.000001   -0.02     -0.87   
   171. D(H  30,C  19,C  15,C  11)    179.98 -0.000008    0.02    180.01   
   172. D(C  20,C  19,C  15,H  28)    179.48 -0.000001   -0.02    179.47   
   173. D(C  20,C  19,C  15,C  11)      0.31 -0.000010    0.03      0.35   
   174. D(C  18,C  20,C  19,H  30)   -179.69  0.000011   -0.03   -179.72   
   175. D(C  18,C  20,C  19,C  15)     -0.01  0.000015   -0.04     -0.05   
   176. D(O   5,C  20,C  19,H  30)     -0.08  0.000000   -0.00     -0.08   
   177. D(O   5,C  20,C  19,C  15)    179.60  0.000005   -0.01    179.59   
   178. D(C  19,C  20,C  18,C  14)     -0.34 -0.000013    0.05     -0.30   
   179. D(C  19,C  20,C  18,O   4)    179.51 -0.000009    0.03    179.54   
   180. D(O   5,C  20,C  18,C  14)   -179.98 -0.000003    0.02   -179.96   
   181. D(O   5,C  20,C  18,O   4)     -0.12  0.000000    0.01     -0.12   
   182. D(C  19,C  20,O   5,H  34)      0.36 -0.000004    0.01      0.37   
   183. D(C  18,C  20,O   5,H  34)    179.98 -0.000014    0.04    180.02   
    ----------------------------------------------------------------------------

Geometry step timings:
Preparation and reading OPT file:      0.004 s ( 3.011 %)
Internal coordinates            :      0.002 s ( 1.603 %)
B/P matrices and projection     :      0.006 s ( 5.167 %)
Hessian update/contruction      :      0.022 s (17.775 %)
Making the step                 :      0.006 s ( 4.696 %)
Converting the step to Cartesian:      0.002 s ( 1.321 %)
Storing new data                :      0.003 s ( 2.272 %)
Checking convergence            :      0.005 s ( 4.217 %)
Final printing                  :      0.075 s (59.936 %)
Total time                      :      0.125 s

Time for energy+gradient        :    244.853 s
Time for complete geometry iter :    245.199 s

         *************************************************************
         *                GEOMETRY OPTIMIZATION CYCLE   8            *
         *************************************************************
---------------------------------
CARTESIAN COORDINATES (ANGSTROEM)
---------------------------------
  O      0.426237    0.648135   -0.203887
  O     -0.703372   -2.820395   -0.274953
  O      4.386978   -1.994359    0.207754
  O      4.659513    2.768941    0.317903
  O     -4.056027    1.737691    1.770872
  O     -5.851158    0.712132    0.095684
  C      0.106836   -1.738757    0.163132
  C     -0.334200   -0.495355   -0.634058
  C      1.593728   -2.012320   -0.087027
  C      2.402877   -0.741341   -0.001818
  C      1.780430    0.509826   -0.062477
  C     -1.799840   -0.158964   -0.474208
  C      3.799331   -0.757707    0.157183
  C      2.504006    1.705291    0.044259
  C     -2.236279    0.654884    0.581672
  C     -2.745471   -0.686720   -1.352294
  C      4.546993    0.413743    0.264219
  C      3.885806    1.646358    0.209548
  C     -3.586835    0.941252    0.762431
  C     -4.103539   -0.409694   -1.172970
  C     -4.538415    0.399695   -0.125000
  H     -0.065496   -1.524999    1.230610
  H     -0.114103   -0.686585   -1.694806
  H      1.688010   -2.477909   -1.079016
  H      1.970893   -2.748714    0.635120
  H      1.971708    2.650739   -0.012887
  H     -1.504147    1.089919    1.258194
  H     -0.403193   -3.618777    0.186804
  H     -2.430167   -1.326914   -2.170501
  H      5.626486    0.392196    0.386402
  H     -4.838834   -0.824185   -1.861248
  H      5.340354   -1.880431    0.345512
  H      4.085891    3.549026    0.259348
  H     -3.298090    2.045442    2.292172
  H     -6.387410    0.274857   -0.584069

----------------------------
CARTESIAN COORDINATES (A.U.)
----------------------------
  NO LB      ZA    FRAG     MASS         X           Y           Z
   0 O     8.0000    0    15.999    0.805471    1.224797   -0.385290
   1 O     8.0000    0    15.999   -1.329181   -5.329774   -0.519586
   2 O     8.0000    0    15.999    8.290188   -3.768792    0.392599
   3 O     8.0000    0    15.999    8.805203    5.232540    0.600750
   4 O     8.0000    0    15.999   -7.664781    3.283759    3.346462
   5 O     8.0000    0    15.999  -11.057087    1.345735    0.180817
   6 C     6.0000    0    12.011    0.201891   -3.285774    0.308275
   7 C     6.0000    0    12.011   -0.631546   -0.936086   -1.198195
   8 C     6.0000    0    12.011    3.011710   -3.802733   -0.164458
   9 C     6.0000    0    12.011    4.540780   -1.400931   -0.003436
  10 C     6.0000    0    12.011    3.364525    0.963432   -0.118064
  11 C     6.0000    0    12.011   -3.401204   -0.300398   -0.896123
  12 C     6.0000    0    12.011    7.179696   -1.431859    0.297034
  13 C     6.0000    0    12.011    4.731886    3.222533    0.083637
  14 C     6.0000    0    12.011   -4.225955    1.237552    1.099201
  15 C     6.0000    0    12.011   -5.188189   -1.297712   -2.555466
  16 C     6.0000    0    12.011    8.592572    0.781861    0.499302
  17 C     6.0000    0    12.011    7.343108    3.111166    0.395987
  18 C     6.0000    0    12.011   -6.778135    1.778708    1.440786
  19 C     6.0000    0    12.011   -7.754565   -0.774210   -2.216592
  20 C     6.0000    0    12.011   -8.576362    0.755314   -0.236216
  21 H     1.0000    0     1.008   -0.123769   -2.881831    2.325517
  22 H     1.0000    0     1.008   -0.215624   -1.297458   -3.202719
  23 H     1.0000    0     1.008    3.189876   -4.682569   -2.039045
  24 H     1.0000    0     1.008    3.724449   -5.194316    1.200202
  25 H     1.0000    0     1.008    3.725989    5.009170   -0.024352
  26 H     1.0000    0     1.008   -2.842427    2.059648    2.377642
  27 H     1.0000    0     1.008   -0.761924   -6.838498    0.353009
  28 H     1.0000    0     1.008   -4.592350   -2.507504   -4.101653
  29 H     1.0000    0     1.008   10.632518    0.741142    0.730193
  30 H     1.0000    0     1.008   -9.144071   -1.557484   -3.517249
  31 H     1.0000    0     1.008   10.091807   -3.553500    0.652923
  32 H     1.0000    0     1.008    7.721215    6.706688    0.490096
  33 H     1.0000    0     1.008   -6.232488    3.865324    4.331578
  34 H     1.0000    0     1.008  -12.070455    0.519404   -1.103731

--------------------------------
INTERNAL COORDINATES (ANGSTROEM)
--------------------------------
 O      0   0   0     0.000000000000     0.00000000     0.00000000
 O      1   0   0     3.648528666647     0.00000000     0.00000000
 O      1   2   0     4.779089063769    74.49153527     0.00000000
 O      1   2   3     4.763476770304   134.47008523   357.71628797
 O      1   2   3     5.017718033794    86.41823340   208.74520181
 O      5   1   2     2.660924447238   105.73460348   306.43877216
 C      2   1   3     1.420667433729    24.99118688    38.05043154
 C      1   2   3     1.439054993321    22.35625171   137.82188323
 C      7   2   1     1.532404915637   111.53727525   238.51994227
 C      9   7   2     1.509095879713   111.14247971   163.54010696
 C      1   2   3     1.368563304890   102.25677898   359.61343663
 C      8   1   2     1.512220657127   107.68553931   122.44581372
 C      3   1   2     1.370106850129    30.93940019   181.60089248
 C     11   1   2     1.401460235575   115.62907543   182.15569930
 C     12   8   1     1.402751403477   120.67540299   325.66010860
 C     12   8   1     1.394195167496   120.43701668   147.60134445
 C     13   3   1     1.393826085177   121.71455790   179.58901352
 C      4   1   2     1.367682701868    28.73487326     2.61246105
 C      5   1   2     1.367994656281    43.70438612   317.30202180
 C     16  12   8     1.397586648485   120.21459480   177.80891987
 C      6   5   1     1.367337686771    62.74088106     8.35592855
 H      7   2   1     1.102225147426   110.92410622   115.33666664
 H      8   1   2     1.100089933953   108.70166407   241.04017427
 H      9   7   2     1.099865519724   107.81709778    41.44084638
 H      9   7   2     1.098192001483   110.21845657   285.87498701
 H     14  11   1     1.086497860377   119.03359096   358.59412549
 H     15  12   8     1.087636564012   119.39495850     3.31743338
 H      2   1   3     0.969918553938   132.64402778    36.26353947
 H     16  12   8     1.085692197515   120.05803112   358.69112867
 H     17  13   3     1.086598786959   121.65952704     0.35150699
 H     20  16  12     1.089122506563   119.96781772   180.00826171
 H      3   1   2     0.969990729422   139.62837543   184.26102860
 H      4   1   2     0.970053874888    79.97425181   182.21222822
 H      5   1   2     0.970017211788    65.31756151   125.60014033
 H      6   5   1     0.969969284999   171.08117972     8.08996735

---------------------------
INTERNAL COORDINATES (A.U.)
---------------------------
 O      0   0   0     0.000000000000     0.00000000     0.00000000
 O      1   0   0     6.894719971724     0.00000000     0.00000000
 O      1   2   0     9.031169500141    74.49153527     0.00000000
 O      1   2   3     9.001666541171   134.47008523   357.71628797
 O      1   2   3     9.482112901108    86.41823340   208.74520181
 O      5   1   2     5.028418468336   105.73460348   306.43877216
 C      2   1   3     2.684672377129    24.99118688    38.05043154
 C      1   2   3     2.719419829028    22.35625171   137.82188323
 C      7   2   1     2.895825616829   111.53727525   238.51994227
 C      9   7   2     2.851777922487   111.14247971   163.54010696
 C      1   2   3     2.586209843176   102.25677898   359.61343663
 C      8   1   2     2.857682896029   107.68553931   122.44581372
 C      3   1   2     2.589126720954    30.93940019   181.60089248
 C     11   1   2     2.648376032818   115.62907543   182.15569930
 C     12   8   1     2.650815986546   120.67540299   325.66010860
 C     12   8   1     2.634647043803   120.43701668   147.60134445
 C     13   3   1     2.633949579300   121.71455790   179.58901352
 C      4   1   2     2.584545744633    28.73487326     2.61246105
 C      5   1   2     2.585135253039    43.70438612   317.30202180
 C     16  12   8     2.641056014061   120.21459480   177.80891987
 C      6   5   1     2.583893760587    62.74088106     8.35592855
 H      7   2   1     2.082903666557   110.92410622   115.33666664
 H      8   1   2     2.078868697854   108.70166407   241.04017427
 H      9   7   2     2.078444616422   107.81709778    41.44084638
 H      9   7   2     2.075282125266   110.21845657   285.87498701
 H     14  11   1     2.053183401204   119.03359096   358.59412549
 H     15  12   8     2.055335239221   119.39495850     3.31743338
 H      2   1   3     1.832880439151   132.64402778    36.26353947
 H     16  12   8     2.051660919038   120.05803112   358.69112867
 H     17  13   3     2.053374124803   121.65952704     0.35150699
 H     20  16  12     2.058143263694   119.96781772   180.00826171
 H      3   1   2     1.833016831051   139.62837543   184.26102860
 H      4   1   2     1.833136158688    79.97425181   182.21222822
 H      5   1   2     1.833066875469    65.31756151   125.60014033
 H      6   5   1     1.832976306964   171.08117972     8.08996735

------------------------------------------------------------------------------
                   ___                                                        
                  /   \      - P O W E R E D   B Y -                         
                 /     \                                                     
                 |  |  |   _    _      __       _____    __    __             
                 |  |  |  | |  | |    /  \     |  _  \  |  |  /  |          
                  \  \/   | |  | |   /    \    | | | |  |  | /  /          
                 / \  \   | |__| |  /  /\  \   | |_| |  |  |/  /          
                |  |  |   |  __  | /  /__\  \  |    /   |      \           
                |  |  |   | |  | | |   __   |  |    \   |  |\   \          
                \     /   | |  | | |  |  |  |  | |\  \  |  | \   \       
                 \___/    |_|  |_| |__|  |__|  |_| \__\ |__|  \__/        
                                                                              
                      - O R C A' S   B I G   F R I E N D -                    
                                      &                                       
                       - I N T E G R A L  F E E D E R -                       
                                                                              
 v1 FN, 2020, v2 2021, v3 2022-2024                                           
------------------------------------------------------------------------------


----------------------
SHARK INTEGRAL PACKAGE
----------------------

Number of atoms                             ...     35
Number of basis functions                   ...    322
Number of shells                            ...    154
Maximum angular momentum                    ...      2
Integral batch strategy                     ... SHARK/LIBINT Hybrid
RI-J (if used) integral strategy            ... SPLIT-RIJ (Revised 2003 algorithm where possible)
Printlevel                                  ...      1
Contraction scheme used                     ... SEGMENTED contraction
Prescreening option                         ... SCHWARTZ
   Thresh                                   ... 2.500e-11
   Tcut                                     ... 2.500e-12
   Tpresel                                  ... 2.500e-12 
Coulomb Range Separation                    ... NOT USED
Exchange Range Separation                   ... NOT USED
Multipole approximations                    ... NOT USED
Finite Nucleus Model                        ... NOT USED
CABS basis                                  ... NOT available
Auxiliary Coulomb fitting basis             ... AVAILABLE
   # of basis functions in Aux-J            ...   1183
   # of shells in Aux-J                     ...    385
   Maximum angular momentum in Aux-J        ...      4
Auxiliary J/K fitting basis                 ... NOT available
Auxiliary Correlation fitting basis         ... NOT available
Auxiliary 'external' fitting basis          ... NOT available

Checking pre-screening integrals            ... done (  0.0 sec) Dimension = 154
   => SHARK Basis and OBASIS are compatible. Storing Pre-screening
Shell pair information
Shell pair cut-off parameter TPreSel        ...   2.5e-12
Total number of shell pairs                 ...     11935
Shell pairs after pre-screening             ...      8453
Total number of primitive shell pairs       ...     69489
Primitive shell pairs kept                  ...     27599
          la=0 lb=0:   2815 shell pairs
          la=1 lb=0:   2887 shell pairs
          la=1 lb=1:    743 shell pairs
          la=2 lb=0:   1216 shell pairs
          la=2 lb=1:    651 shell pairs
          la=2 lb=2:    141 shell pairs

Checking whether 4 symmetric matrices of dimension 322 fit in memory
:Max Core in MB      =   4096.00
 MB in use           =     15.95
 MB left             =   4080.05
 MB needed           =      1.59
 Data fit in memory  = YES
Calculating RI/J V-Matrix + Cholesky decomp.... done (  0.3 sec)
Calculating Nuclear repulsion               ... done (  0.0 sec) ENN=   1638.827518155385 Eh

Diagonalization of the overlap matrix:
Smallest eigenvalue                        ... 3.960e-04
Time for diagonalization                   ...    0.010 sec
Threshold for overlap eigenvalues          ... 1.000e-07
Number of eigenvalues below threshold      ... 0
Time for construction of square roots      ...    0.018 sec
Total time needed                          ...    0.045 sec

-------------------
DFT GRID GENERATION
-------------------

General Integration Accuracy     IntAcc      ... 4.388
Radial Grid Type                 RadialGrid  ... OptM3 with GC (2021)
Angular Grid (max. ang.)         AngularGrid ... 4 (Lebedev-302)
Angular grid pruning method      GridPruning ... 4 (adaptive)
Weight generation scheme         WeightScheme... mBecke (2022)
Basis function cutoff            BFCut       ... 1.0000e-11
Integration weight cutoff        WCut        ... 1.0000e-14
Partially contracted basis set               ... off
Rotationally invariant grid construction     ... off
Angular grids for H and He will be reduced by one unit

Total number of grid points                  ...   170398
Total number of batches                      ...     2678
Average number of points per batch           ...       63
Average number of grid points per atom       ...     4869

--------------------
COSX GRID GENERATION
--------------------

GRIDX 1
-------
General Integration Accuracy     IntAcc      ... 3.816
Radial Grid Type                 RadialGrid  ... OptM3 with GC (2021)
Angular Grid (max. ang.)         AngularGrid ... 1 (Lebedev-50)
Angular grid pruning method      GridPruning ... 4 (adaptive)
Weight generation scheme         WeightScheme... mBecke (2022)
Basis function cutoff            BFCut       ... 1.0000e-11
Integration weight cutoff        WCut        ... 1.0000e-14
Partially contracted basis set               ... on
Rotationally invariant grid construction     ... off
Angular grids for H and He will be reduced by one unit

Total number of grid points                  ...    21682
Total number of batches                      ...      190
Average number of points per batch           ...      114
Average number of grid points per atom       ...      619
UseSFitting                                  ... on

GRIDX 2
-------
General Integration Accuracy     IntAcc      ... 4.020
Radial Grid Type                 RadialGrid  ... OptM3 with GC (2021)
Angular Grid (max. ang.)         AngularGrid ... 2 (Lebedev-110)
Angular grid pruning method      GridPruning ... 4 (adaptive)
Weight generation scheme         WeightScheme... mBecke (2022)
Basis function cutoff            BFCut       ... 1.0000e-11
Integration weight cutoff        WCut        ... 1.0000e-14
Partially contracted basis set               ... on
Rotationally invariant grid construction     ... off
Angular grids for H and He will be reduced by one unit

Total number of grid points                  ...    47494
Total number of batches                      ...      388
Average number of points per batch           ...      122
Average number of grid points per atom       ...     1357
UseSFitting                                  ... on

GRIDX 3
-------
General Integration Accuracy     IntAcc      ... 4.338
Radial Grid Type                 RadialGrid  ... OptM3 with GC (2021)
Angular Grid (max. ang.)         AngularGrid ... 3 (Lebedev-194)
Angular grid pruning method      GridPruning ... 4 (adaptive)
Weight generation scheme         WeightScheme... mBecke (2022)
Basis function cutoff            BFCut       ... 1.0000e-11
Integration weight cutoff        WCut        ... 1.0000e-14
Partially contracted basis set               ... on
Rotationally invariant grid construction     ... off
Angular grids for H and He will be reduced by one unit

Total number of grid points                  ...   104060
Total number of batches                      ...      830
Average number of points per batch           ...      125
Average number of grid points per atom       ...     2973
UseSFitting                                  ... on
Grids setup in   5.5 sec
Initializing property integral containers    ... done (  0.0 sec)

SHARK setup successfully completed in   6.4 seconds

Maximum memory used throughout the entire STARTUP-calculation: 72.8 MB
Occupation numbers will be reassigned to an Aufbau configuration
             **** ENERGY FILE WAS UPDATED (Catechin.en.tmp) ****
Finished Guess after   0.6 sec
Maximum memory used throughout the entire GUESS-calculation: 26.1 MB
----------------------------------------D-I-I-S--------------------------------------------
Iteration    Energy (Eh)           Delta-E    RMSDP     MaxDP     DIISErr   Damp  Time(sec)
-------------------------------------------------------------------------------------------
               ***  Starting incremental Fock matrix formation  ***
    1    -1030.7415240851421459     0.00e+00  2.55e-05  8.88e-04  3.86e-03  0.700  18.4
                              *** Initializing SOSCF ***
---------------------------------------S-O-S-C-F--------------------------------------
Iteration    Energy (Eh)           Delta-E    RMSDP     MaxDP     MaxGrad    Time(sec)
--------------------------------------------------------------------------------------
    2    -1030.7415714310352541    -4.73e-05  7.99e-05  2.69e-03  3.08e-03     7.9
               *** Restarting incremental Fock matrix formation ***
    3    -1030.7417035494638640    -1.32e-04  2.37e-05  7.75e-04  2.16e-04    18.1
    4    -1030.7417085274848887    -4.98e-06  1.16e-05  4.27e-04  1.16e-04    12.1
    5    -1030.7417080130278464     5.14e-07  6.89e-06  2.34e-04  2.01e-04    11.1
    6    -1030.7417088480676739    -8.35e-07  1.48e-06  4.72e-05  1.02e-05    10.4
    7    -1030.7417088496065389    -1.54e-09  8.65e-07  2.92e-05  1.55e-05     9.1
                 **** Energy Check signals convergence ****

               *****************************************************
               *                     SUCCESS                       *
               *           SCF CONVERGED AFTER   7 CYCLES          *
               *****************************************************

Recomputing exchange energy using gridx3       ... done (   28.017 sec)
Old exchange energy                            :    -26.464056146 Eh
New exchange energy                            :    -26.464067720 Eh
Exchange energy change after final integration :     -0.000011573 Eh
Total energy after final integration           :  -1030.741720425 Eh
             **** ENERGY FILE WAS UPDATED (Catechin.en.tmp) ****

----------------
TOTAL SCF ENERGY
----------------

Total Energy       :      -1030.74172042514215 Eh          -28047.90814 eV

Components:
Nuclear Repulsion  :       1638.82751815538518 Eh           44594.76392 eV
Electronic Energy  :      -2669.56922700714222 Eh          -72642.67175 eV
One Electron Energy:      -4664.66548630166562 Eh         -126932.00098 eV
Two Electron Energy:       1995.09625929452341 Eh           54289.32923 eV

Virial components:
Potential Energy   :      -2055.64156538878024 Eh          -55936.85077 eV
Kinetic Energy     :       1024.89984496363809 Eh           27888.94263 eV
Virial Ratio       :          2.00569994764875

DFT components:
N(Alpha)           :       75.999981006966 electrons
N(Beta)            :       75.999981006966 electrons
N(Total)           :      151.999962013931 electrons
E(X)               :     -105.196661117291 Eh       
E(C)               :       -6.208132915572 Eh       
E(XC)              :     -111.404794032863 Eh       

---------------
SCF CONVERGENCE
---------------

  Last Energy change         ...    1.5389e-09  Tolerance :   1.0000e-08
  Last MAX-Density change    ...    2.9225e-05  Tolerance :   1.0000e-07
  Last RMS-Density change    ...    8.6511e-07  Tolerance :   5.0000e-09
  Last DIIS Error            ...    3.0815e-03  Tolerance :   5.0000e-07
  Last Orbital Gradient      ...    1.5534e-05  Tolerance :   1.0000e-05
  Last Orbital Rotation      ...    2.2720e-05  Tolerance :   1.0000e-05


Total SCF time: 0 days 0 hours 2 min 6 sec 
Finished LeanSCF after 126.3 sec

Maximum memory used throughout the entire LEANSCF-calculation: 50.5 MB

------------------------------------------------------------------------------
                         ORCA PROPERTY INTEGRAL CALCULATIONS
------------------------------------------------------------------------------

GBWName                                   ... Catechin.gbw
Number of atoms                           ...     35
Number of basis functions                 ...    322
Max core memory                           ...   4096 MB

Dipole integrals                          ... YES
Quadrupole integrals                      ...  NO
Linear momentum integrals                 ...  NO
Angular momentum integrals                ...  NO
Higher moments length integrals           ...  NO
Higher moments velocity integrals         ...  NO
Kinetic energy integrals                  ...  NO
GIAO right hand sides                     ...  NO
GIAO dipole derivative integrals          ...  NO
SOC integrals                             ...  NO
EPR diamagnetic integrals (GIAO)          ...  NO
EPR gauge integrals                       ...  NO
Field gradient integrals                  ...  NO (   0 nuclei)
Spin-dipole/Fermi contact integrals       ...  NO (   0 nuclei)
Contact density integrals                 ...  NO (   0 nuclei)
Nucleus-orbit integrals                   ...  NO (   0 nuclei)
Geometric perturbations                   ...  NO (  35 nuclei)

Choice of electric origin   ... Center of mass
Position of electric origin ... ( -0.0080,  0.0191,  0.0589) 
Choice of magnetic origin   ... GIAO
Position of magnetic origin ... (  0.0000,  0.0000,  0.0000) 

Calculating integrals                     ... Electric Dipole (Length)     done (  0.1 sec)

Property integrals calculated in   0.1 sec

Maximum memory used throughout the entire PROPINT-calculation: 25.9 MB

-------------------------   --------------------
FINAL SINGLE POINT ENERGY     -1030.741720425142
-------------------------   --------------------

------------------------------------------------------------------------------
                         ORCA SCF GRADIENT CALCULATION
------------------------------------------------------------------------------

Nuc. rep. gradient        (SHARK) ... done (  0.0 sec)
HCore & Overlap gradient  (SHARK) ... done (  1.0 sec)
Split-RIJ-J gradient      (SHARK) ... done (  4.7 sec)
COSX-gradient                     ... done ( 62.9 sec)
XC gradient                       ... done ( 13.8 sec)

------------------
CARTESIAN GRADIENT
------------------

   1   O   :   -0.000196170    0.000114559   -0.000125481
   2   O   :    0.000317410    0.000074506    0.000125685
   3   O   :    0.000068880    0.000053187   -0.000023521
   4   O   :   -0.000008958    0.000024164   -0.000021789
   5   O   :    0.000153445   -0.000097480   -0.000052069
   6   O   :    0.000078060   -0.000123054   -0.000130788
   7   C   :   -0.000350871   -0.000361166    0.000050793
   8   C   :    0.000279976    0.000406857   -0.000026850
   9   C   :    0.000091865    0.000132193   -0.000141749
  10   C   :   -0.000092903    0.000064958    0.000039384
  11   C   :    0.000011703   -0.000371923   -0.000032355
  12   C   :   -0.000197233   -0.000393158   -0.000300764
  13   C   :   -0.000048822   -0.000023941   -0.000003248
  14   C   :    0.000274444    0.000123984    0.000058329
  15   C   :   -0.000149533    0.000316448    0.000402983
  16   C   :    0.000319548    0.000098095    0.000204049
  17   C   :    0.000042574   -0.000081365    0.000010658
  18   C   :   -0.000133265   -0.000051867   -0.000023511
  19   C   :    0.000061936    0.000014071   -0.000007219
  20   C   :   -0.000270373    0.000008298   -0.000028356
  21   C   :    0.000047397   -0.000049010   -0.000080065
  22   H   :   -0.000050849    0.000005415   -0.000032469
  23   H   :    0.000082007    0.000018635    0.000017651
  24   H   :   -0.000035011   -0.000012610    0.000016001
  25   H   :    0.000039885    0.000002932    0.000009495
  26   H   :   -0.000066652   -0.000035717   -0.000007862
  27   H   :    0.000023817   -0.000033423   -0.000053500
  28   H   :   -0.000105963   -0.000003281    0.000008736
  29   H   :   -0.000020595    0.000002188   -0.000009908
  30   H   :   -0.000003914    0.000021629   -0.000001168
  31   H   :   -0.000047269    0.000047620    0.000048686
  32   H   :   -0.000011563   -0.000002750    0.000022922
  33   H   :    0.000014308    0.000009162    0.000017322
  34   H   :   -0.000063411    0.000048948    0.000020965
  35   H   :   -0.000053900    0.000052898    0.000049012

Difference to translation invariance:
           :   -0.0000000001    0.0000000000   -0.0000000000

Difference to rotation invariance:
           :    0.0000119181   -0.0000408338   -0.0000968767

Norm of the Cartesian gradient     ...    0.0014041220
RMS gradient                       ...    0.0001370283
MAX gradient                       ...    0.0004068566

-------
TIMINGS
-------

Total SCF gradient time     ....       82.324 sec

Densities                   ....       0.002 sec  (  0.0%)
One electron gradient       ....       0.954 sec  (  1.2%)
RI-J Coulomb gradient       ....       4.729 sec  (  5.7%)
COSX gradient               ....      62.863 sec  ( 76.4%)
XC gradient                 ....      13.772 sec  ( 16.7%)

Maximum memory used throughout the entire SCFGRAD-calculation: 56.7 MB
------------------------------------------------------------------------------
                         ORCA GEOMETRY RELAXATION STEP
------------------------------------------------------------------------------

Reading the OPT-File                    .... done
Getting information on internals        .... done
Copying old internal coords+grads       .... done
Making the new internal coordinates     .... (2022 redundants) done
Validating the new internal coordinates .... (2022 redundants) done
Calculating the B-matrix                .... done
Calculating the G,G- and P matrices     .... done
Transforming gradient to internals      .... done
Projecting the internal gradient        .... done
Number of atoms                         ....  35
Number of internal coordinates          .... 183
Current Energy                          .... -1030.741720425 Eh
Current gradient norm                   ....     0.001404122 Eh/bohr
Maximum allowed component of the step   ....  0.300
Current trust radius                    ....  0.450
Updating the Hessian (BFGS)             .... done
Forming the augmented Hessian           .... done
Diagonalizing the augmented Hessian     .... done
Last element of RFO vector              ....  0.999948562
Lowest eigenvalues of augmented Hessian:
 -0.000003784  0.002356932  0.014557917  0.015486766  0.019310759
Length of the computed step             ....  0.010143195
The final length of the internal step   ....  0.010143195
Converting the step to Cartesian space:
 Initial RMS(Int)=    0.0007498066
Transforming coordinates:
 Iter   0:  RMS(Cart)=    0.0016896161 RMS(Int)=    0.0007496758
done
Storing new coordinates                 .... done
The predicted energy change is          ....    -0.000001892
Previously predicted energy change      ....    -0.000010203
Actually observed energy change         ....    -0.000005302
Ratio of predicted to observed change   ....     0.519650430
New trust radius                        ....     0.450000000

                                .--------------------.
          ----------------------|Geometry convergence|-------------------------
          Item                value                   Tolerance       Converged
          ---------------------------------------------------------------------
          Energy change      -0.0000053019            0.0000050000      NO
          RMS gradient        0.0000671845            0.0001000000      YES
          MAX gradient        0.0003091325            0.0003000000      NO
          RMS step            0.0007498066            0.0020000000      YES
          MAX step            0.0051872011            0.0040000000      NO
          -------------------------------------------------------------------------
          ........................................................
          Max(Bonds)      0.0005      Max(Angles)    0.05
          Max(Dihed)        0.30      Max(Improp)    0.00
          ---------------------------------------------------------------------

The optimization has not yet converged - more geometry cycles are needed


    ---------------------------------------------------------------------------
                         Redundant Internal Coordinates
                            (Angstroem and degrees)

        Definition                    Value    dE/dq     Step     New-Value
    ----------------------------------------------------------------------------
     1. B(C   6,O   1)                1.4207 -0.000217  0.0004    1.4210   
     2. B(C   7,O   0)                1.4391 -0.000119  0.0001    1.4391   
     3. B(C   7,C   6)                1.5415  0.000197 -0.0005    1.5409   
     4. B(C   8,C   6)                1.5324  0.000066 -0.0001    1.5323   
     5. B(C   9,C   8)                1.5091 -0.000115  0.0003    1.5094   
     6. B(C  10,C   9)                1.3988 -0.000122  0.0001    1.3989   
     7. B(C  10,O   0)                1.3686  0.000109 -0.0001    1.3685   
     8. B(C  11,C   7)                1.5122  0.000097 -0.0000    1.5122   
     9. B(C  12,C   9)                1.4056  0.000044 -0.0001    1.4055   
    10. B(C  12,O   2)                1.3701 -0.000022 -0.0000    1.3701   
    11. B(C  13,C  10)                1.4015  0.000110 -0.0001    1.4013   
    12. B(C  14,C  11)                1.4028  0.000309 -0.0005    1.4023   
    13. B(C  15,C  11)                1.3942 -0.000178  0.0003    1.3945   
    14. B(C  16,C  12)                1.3938 -0.000035  0.0001    1.3939   
    15. B(C  17,O   3)                1.3677  0.000030 -0.0000    1.3676   
    16. B(C  17,C  16)                1.3998 -0.000003 -0.0000    1.3998   
    17. B(C  17,C  13)                1.3929 -0.000126  0.0002    1.3931   
    18. B(C  18,C  14)                1.3924 -0.000126  0.0003    1.3926   
    19. B(C  18,O   4)                1.3680 -0.000082  0.0002    1.3681   
    20. B(C  19,C  15)                1.3976  0.000175 -0.0003    1.3973   
    21. B(C  20,C  19)                1.3937 -0.000153  0.0003    1.3940   
    22. B(C  20,C  18)                1.4094  0.000096 -0.0003    1.4090   
    23. B(C  20,O   5)                1.3673 -0.000052  0.0001    1.3675   
    24. B(H  21,C   6)                1.1022 -0.000022  0.0000    1.1023   
    25. B(H  22,C   7)                1.1001 -0.000004  0.0000    1.1001   
    26. B(H  23,C   8)                1.0999 -0.000012  0.0000    1.0999   
    27. B(H  24,C   8)                1.0982  0.000018 -0.0000    1.0982   
    28. B(H  25,C  13)                1.0865  0.000002  0.0000    1.0865   
    29. B(H  26,C  14)                1.0876 -0.000031  0.0000    1.0877   
    30. B(H  27,O   1)                0.9699 -0.000026  0.0000    0.9700   
    31. B(H  28,C  15)                1.0857  0.000000 -0.0000    1.0857   
    32. B(H  29,C  16)                1.0866 -0.000005  0.0000    1.0866   
    33. B(H  30,C  19)                1.0891 -0.000017  0.0000    1.0891   
    34. B(H  31,O   2)                0.9700 -0.000008  0.0000    0.9700   
    35. B(H  32,O   3)                0.9701 -0.000002 -0.0000    0.9700   
    36. B(H  33,O   4)                0.9700 -0.000023  0.0000    0.9700   
    37. B(H  34,O   5)                0.9700 -0.000028  0.0000    0.9700   
    38. A(C   7,O   0,C  10)          118.26 -0.000170    0.04    118.30   
    39. A(C   6,O   1,H  27)          107.66  0.000130   -0.05    107.61   
    40. A(C  12,O   2,H  31)          108.71  0.000001   -0.01    108.71   
    41. A(C  17,O   3,H  32)          108.71  0.000034   -0.01    108.70   
    42. A(C  18,O   4,H  33)          108.23  0.000141   -0.03    108.20   
    43. A(C  20,O   5,H  34)          108.34  0.000156   -0.04    108.31   
    44. A(O   1,C   6,C   8)          111.54 -0.000073    0.01    111.55   
    45. A(C   8,C   6,H  21)          110.15  0.000111   -0.03    110.12   
    46. A(C   7,C   6,C   8)          109.71 -0.000120    0.04    109.75   
    47. A(O   1,C   6,C   7)          106.95  0.000171   -0.03    106.91   
    48. A(C   7,C   6,H  21)          107.44 -0.000049    0.02    107.46   
    49. A(O   1,C   6,H  21)          110.92 -0.000041   -0.01    110.91   
    50. A(C   6,C   7,C  11)          113.71 -0.000210    0.05    113.76   
    51. A(C  11,C   7,H  22)          109.54  0.000117   -0.04    109.50   
    52. A(C   6,C   7,H  22)          107.53  0.000009    0.02    107.55   
    53. A(O   0,C   7,C  11)          107.69  0.000066   -0.02    107.67   
    54. A(O   0,C   7,H  22)          108.70 -0.000086    0.01    108.72   
    55. A(O   0,C   7,C   6)          109.58  0.000105   -0.02    109.56   
    56. A(C   6,C   8,C   9)          111.14  0.000040   -0.00    111.14   
    57. A(C   9,C   8,H  24)          110.09 -0.000052    0.02    110.11   
    58. A(C   6,C   8,H  24)          110.22  0.000019   -0.02    110.20   
    59. A(C   9,C   8,H  23)          111.19  0.000010   -0.03    111.16   
    60. A(C   6,C   8,H  23)          107.82 -0.000029    0.02    107.84   
    61. A(H  23,C   8,H  24)          106.25  0.000011    0.01    106.25   
    62. A(C   8,C   9,C  10)          120.82  0.000004   -0.01    120.81   
    63. A(C  10,C   9,C  12)          117.22  0.000008    0.01    117.23   
    64. A(C   8,C   9,C  12)          121.96 -0.000012    0.00    121.96   
    65. A(C   9,C  10,C  13)          122.00 -0.000039    0.00    122.00   
    66. A(O   0,C  10,C  13)          115.63 -0.000080    0.02    115.65   
    67. A(O   0,C  10,C   9)          122.36  0.000119   -0.02    122.34   
    68. A(C  14,C  11,C  15)          118.86  0.000027   -0.01    118.85   
    69. A(C   7,C  11,C  15)          120.44  0.000040   -0.03    120.41   
    70. A(C   7,C  11,C  14)          120.68 -0.000067    0.03    120.71   
    71. A(O   2,C  12,C   9)          116.16  0.000088   -0.01    116.15   
    72. A(C   9,C  12,C  16)          122.13  0.000013   -0.01    122.12   
    73. A(O   2,C  12,C  16)          121.71 -0.000101    0.02    121.73   
    74. A(C  17,C  13,H  25)          121.94  0.000062   -0.02    121.92   
    75. A(C  10,C  13,H  25)          119.03 -0.000094    0.02    119.06   
    76. A(C  10,C  13,C  17)          119.02  0.000032   -0.00    119.02   
    77. A(C  11,C  14,C  18)          121.25 -0.000103    0.01    121.27   
    78. A(C  11,C  14,H  26)          119.39 -0.000010   -0.00    119.39   
    79. A(C  18,C  14,H  26)          119.33  0.000113   -0.01    119.32   
    80. A(C  11,C  15,C  19)          120.21  0.000044   -0.01    120.21   
    81. A(C  19,C  15,H  28)          119.72 -0.000045    0.01    119.73   
    82. A(C  11,C  15,H  28)          120.06  0.000001   -0.00    120.06   
    83. A(C  17,C  16,H  29)          119.41 -0.000012   -0.00    119.41   
    84. A(C  12,C  16,H  29)          121.66  0.000033   -0.01    121.65   
    85. A(C  12,C  16,C  17)          118.93 -0.000021    0.01    118.94   
    86. A(C  13,C  17,C  16)          120.69  0.000008   -0.00    120.69   
    87. A(O   3,C  17,C  16)          116.90  0.000000    0.01    116.91   
    88. A(O   3,C  17,C  13)          122.40 -0.000008   -0.00    122.40   
    89. A(C  14,C  18,C  20)          119.61  0.000033   -0.00    119.61   
    90. A(O   4,C  18,C  20)          117.15  0.000000    0.02    117.16   
    91. A(O   4,C  18,C  14)          123.24 -0.000033   -0.01    123.22   
    92. A(C  20,C  19,H  30)          119.05 -0.000042    0.03    119.07   
    93. A(C  15,C  19,H  30)          119.97  0.000124   -0.04    119.93   
    94. A(C  15,C  19,C  20)          120.98 -0.000083    0.01    121.00   
    95. A(O   5,C  20,C  18)          117.31  0.000007    0.01    117.32   
    96. A(C  18,C  20,C  19)          119.07  0.000082   -0.01    119.06   
    97. A(O   5,C  20,C  19)          123.62 -0.000089   -0.00    123.62   
    98. D(C   8,C   6,O   1,H  27)     57.14  0.000091   -0.30     56.84   
    99. D(H  21,C   6,O   1,H  27)    -66.04  0.000029   -0.26    -66.30   
   100. D(C   7,C   6,O   1,H  27)    177.09  0.000010   -0.26    176.83   
   101. D(O   0,C   7,C   6,O   1)    178.26  0.000019    0.01    178.27   
   102. D(C  11,C   7,O   0,C  10)    170.12 -0.000114    0.04    170.16   
   103. D(H  22,C   7,O   0,C  10)    -71.28  0.000015   -0.01    -71.29   
   104. D(C  11,C   7,C   6,O   1)     57.70 -0.000000    0.02     57.72   
   105. D(O   0,C   7,C   6,C   8)    -60.62 -0.000035    0.03    -60.59   
   106. D(C  11,C   7,C   6,H  21)    -61.44 -0.000018    0.04    -61.40   
   107. D(C  11,C   7,C   6,C   8)    178.82 -0.000054    0.04    178.86   
   108. D(C   6,C   7,O   0,C  10)     45.97  0.000037    0.00     45.98   
   109. D(O   0,C   7,C   6,H  21)     59.11  0.000001    0.04     59.15   
   110. D(C   9,C   8,C   6,H  21)    -72.84  0.000012   -0.06    -72.89   
   111. D(C   9,C   8,C   6,O   1)    163.54  0.000036   -0.03    163.51   
   112. D(C   9,C   8,C   6,C   7)     45.23 -0.000054   -0.02     45.21   
   113. D(H  23,C   8,C   6,O   1)     41.44  0.000018   -0.01     41.44   
   114. D(H  23,C   8,C   6,C   7)    -76.87 -0.000072    0.00    -76.87   
   115. D(H  23,C   8,C   6,H  21)    165.07 -0.000006   -0.03    165.03   
   116. D(C  12,C   9,C   8,C   6)    162.99 -0.000011    0.04    163.03   
   117. D(C  10,C   9,C   8,H  23)    103.91 -0.000016    0.02    103.93   
   118. D(C  10,C   9,C   8,H  24)   -138.62 -0.000029    0.03   -138.59   
   119. D(C  12,C   9,C   8,H  23)    -76.89 -0.000014    0.04    -76.85   
   120. D(C  10,C   9,C   8,C   6)    -16.21 -0.000013    0.02    -16.19   
   121. D(C  13,C  10,C   9,C  12)     -0.69 -0.000010    0.02     -0.68   
   122. D(C  13,C  10,C   9,C   8)    178.54 -0.000009    0.04    178.58   
   123. D(O   0,C  10,C   9,C  12)   -179.42 -0.000009    0.01   -179.41   
   124. D(O   0,C  10,C   9,C   8)     -0.19 -0.000008    0.03     -0.16   
   125. D(C  13,C  10,O   0,C   7)    165.43  0.000002   -0.05    165.38   
   126. D(C   9,C  10,O   0,C   7)    -15.77  0.000002   -0.04    -15.81   
   127. D(C  14,C  11,C   7,C   6)     87.28  0.000037    0.05     87.33   
   128. D(C  14,C  11,C   7,O   0)    -34.34 -0.000008    0.06    -34.28   
   129. D(C  15,C  11,C   7,C   6)    -90.78  0.000030    0.03    -90.75   
   130. D(C  15,C  11,C   7,O   0)    147.60 -0.000016    0.04    147.65   
   131. D(C  14,C  11,C   7,H  22)   -152.39 -0.000008    0.08   -152.31   
   132. D(C  16,C  12,C   9,C  10)      0.59  0.000006   -0.01      0.58   
   133. D(C  16,C  12,C   9,C   8)   -178.64  0.000005   -0.03   -178.66   
   134. D(O   2,C  12,C   9,C  10)   -179.71  0.000004   -0.01   -179.72   
   135. D(O   2,C  12,C   9,C   8)      1.06  0.000003   -0.03      1.04   
   136. D(C  16,C  12,O   2,H  31)      1.41  0.000020   -0.06      1.34   
   137. D(C   9,C  12,O   2,H  31)   -178.29  0.000022   -0.07   -178.36   
   138. D(H  25,C  13,C  10,C   9)    179.79  0.000003   -0.00    179.79   
   139. D(C  17,C  13,C  10,O   0)    179.11  0.000011   -0.01    179.10   
   140. D(C  17,C  13,C  10,C   9)      0.30  0.000010   -0.02      0.29   
   141. D(H  25,C  13,C  10,O   0)     -1.41  0.000004    0.00     -1.40   
   142. D(H  26,C  14,C  11,C  15)   -178.59  0.000005   -0.02   -178.62   
   143. D(H  26,C  14,C  11,C   7)      3.32 -0.000002   -0.04      3.27   
   144. D(C  18,C  14,C  11,C  15)     -0.07  0.000007   -0.01     -0.08   
   145. D(C  18,C  14,C  11,C   7)   -178.16 -0.000001   -0.03   -178.18   
   146. D(H  28,C  15,C  11,C  14)   -179.40 -0.000007    0.02   -179.38   
   147. D(H  28,C  15,C  11,C   7)     -1.31 -0.000001    0.04     -1.27   
   148. D(C  19,C  15,C  11,C  14)     -0.28 -0.000004    0.00     -0.28   
   149. D(C  19,C  15,C  11,C   7)    177.81  0.000001    0.03    177.83   
   150. D(H  29,C  16,C  12,C   9)   -179.97  0.000000   -0.00   -179.97   
   151. D(H  29,C  16,C  12,O   2)      0.35  0.000002   -0.01      0.35   
   152. D(C  17,C  16,C  12,C   9)     -0.10 -0.000001    0.00     -0.10   
   153. D(C  17,C  16,C  12,O   2)   -179.78  0.000000    0.00   -179.78   
   154. D(C  16,C  17,C  13,H  25)   -179.25  0.000003   -0.00   -179.25   
   155. D(C  16,C  17,C  13,C  10)      0.22 -0.000005    0.01      0.23   
   156. D(O   3,C  17,C  13,H  25)      0.38  0.000003   -0.01      0.37   
   157. D(O   3,C  17,C  13,C  10)    179.84 -0.000005    0.01    179.85   
   158. D(C  16,C  17,O   3,H  32)    179.62  0.000013   -0.05    179.58   
   159. D(O   3,C  17,C  16,C  12)   -179.96  0.000002   -0.00   -179.97   
   160. D(C  13,C  17,O   3,H  32)     -0.02  0.000013   -0.04     -0.06   
   161. D(C  13,C  17,C  16,H  29)    179.55 -0.000001    0.00    179.55   
   162. D(C  13,C  17,C  16,C  12)     -0.32  0.000001   -0.01     -0.32   
   163. D(O   3,C  17,C  16,H  29)     -0.09 -0.000000    0.00     -0.09   
   164. D(C  20,C  18,C  14,H  26)    178.89 -0.000004    0.01    178.90   
   165. D(C  20,C  18,C  14,C  11)      0.36 -0.000004   -0.00      0.36   
   166. D(O   4,C  18,C  14,H  26)     -0.94 -0.000007    0.03     -0.92   
   167. D(O   4,C  18,C  14,C  11)   -179.47 -0.000007    0.01   -179.46   
   168. D(C  20,C  18,O   4,H  33)   -179.36  0.000017   -0.06   -179.42   
   169. D(C  14,C  18,O   4,H  33)      0.47  0.000020   -0.07      0.40   
   170. D(H  30,C  19,C  15,H  28)     -0.87  0.000001   -0.01     -0.88   
   171. D(H  30,C  19,C  15,C  11)   -179.99 -0.000002    0.01   -179.98   
   172. D(C  20,C  19,C  15,H  28)    179.47  0.000001   -0.01    179.46   
   173. D(C  20,C  19,C  15,C  11)      0.35 -0.000002    0.01      0.36   
   174. D(C  18,C  20,C  19,H  30)   -179.72  0.000004   -0.02   -179.73   
   175. D(C  18,C  20,C  19,C  15)     -0.05  0.000005   -0.02     -0.07   
   176. D(O   5,C  20,C  19,H  30)     -0.08  0.000004   -0.01     -0.09   
   177. D(O   5,C  20,C  19,C  15)    179.59  0.000005   -0.02    179.57   
   178. D(C  19,C  20,C  18,C  14)     -0.30 -0.000003    0.01     -0.28   
   179. D(C  19,C  20,C  18,O   4)    179.54  0.000000    0.00    179.55   
   180. D(O   5,C  20,C  18,C  14)   -179.96 -0.000002    0.01   -179.95   
   181. D(O   5,C  20,C  18,O   4)     -0.12  0.000001    0.00     -0.12   
   182. D(C  19,C  20,O   5,H  34)      0.37 -0.000007    0.02      0.39   
   183. D(C  18,C  20,O   5,H  34)   -179.98 -0.000007    0.02   -179.96   
    ----------------------------------------------------------------------------

Geometry step timings:
Preparation and reading OPT file:      0.004 s ( 3.065 %)
Internal coordinates            :      0.002 s ( 1.815 %)
B/P matrices and projection     :      0.006 s ( 5.203 %)
Hessian update/contruction      :      0.021 s (17.036 %)
Making the step                 :      0.006 s ( 4.915 %)
Converting the step to Cartesian:      0.002 s ( 1.621 %)
Storing new data                :      0.004 s ( 2.960 %)
Checking convergence            :      0.005 s ( 4.421 %)
Final printing                  :      0.071 s (58.962 %)
Total time                      :      0.121 s

Time for energy+gradient        :    216.595 s
Time for complete geometry iter :    216.913 s

         *************************************************************
         *                GEOMETRY OPTIMIZATION CYCLE   9            *
         *************************************************************
---------------------------------
CARTESIAN COORDINATES (ANGSTROEM)
---------------------------------
  O      0.426018    0.647035   -0.202478
  O     -0.703374   -2.820949   -0.276034
  O      4.387227   -1.994274    0.207854
  O      4.658842    2.769407    0.317748
  O     -4.055980    1.739904    1.770062
  O     -5.851480    0.714152    0.094760
  C      0.107120   -1.739416    0.162986
  C     -0.334617   -0.496210   -0.633150
  C      1.594057   -2.012812   -0.086719
  C      2.403138   -0.741509   -0.001187
  C      1.780268    0.509588   -0.061626
  C     -1.800072   -0.159237   -0.473055
  C      3.799523   -0.757664    0.157412
  C      2.503453    1.705167    0.044630
  C     -2.236534    0.655119    0.581775
  C     -2.745820   -0.687374   -1.351233
  C      4.546910    0.414127    0.264137
  C      3.885490    1.646600    0.209616
  C     -3.587257    0.942335    0.762091
  C     -4.103548   -0.409704   -1.172397
  C     -4.538653    0.400890   -0.125050
  H     -0.065140   -1.526826    1.230750
  H     -0.115364   -0.686719   -1.694212
  H      1.689131   -2.477967   -1.078861
  H      1.970688   -2.749417    0.635447
  H      1.971189    2.650653   -0.012290
  H     -1.504475    1.090095    1.258490
  H     -0.399798   -3.620096    0.182249
  H     -2.430507   -1.328456   -2.168725
  H      5.626453    0.392793    0.386088
  H     -4.838370   -0.824795   -1.860854
  H      5.340779   -1.880186    0.344308
  H      4.084948    3.549241    0.258581
  H     -3.297591    2.046412    2.291468
  H     -6.387152    0.276090   -0.584980

----------------------------
CARTESIAN COORDINATES (A.U.)
----------------------------
  NO LB      ZA    FRAG     MASS         X           Y           Z
   0 O     8.0000    0    15.999    0.805058    1.222719   -0.382627
   1 O     8.0000    0    15.999   -1.329185   -5.330820   -0.521629
   2 O     8.0000    0    15.999    8.290657   -3.768632    0.392788
   3 O     8.0000    0    15.999    8.803935    5.233420    0.600456
   4 O     8.0000    0    15.999   -7.664691    3.287942    3.344933
   5 O     8.0000    0    15.999  -11.057695    1.349552    0.179070
   6 C     6.0000    0    12.011    0.202427   -3.287020    0.307999
   7 C     6.0000    0    12.011   -0.632335   -0.937701   -1.196481
   8 C     6.0000    0    12.011    3.012330   -3.803663   -0.163876
   9 C     6.0000    0    12.011    4.541273   -1.401249   -0.002244
  10 C     6.0000    0    12.011    3.364219    0.962982   -0.116457
  11 C     6.0000    0    12.011   -3.401643   -0.300915   -0.893944
  12 C     6.0000    0    12.011    7.180058   -1.431777    0.297466
  13 C     6.0000    0    12.011    4.730840    3.222299    0.084339
  14 C     6.0000    0    12.011   -4.226436    1.237996    1.099395
  15 C     6.0000    0    12.011   -5.188848   -1.298948   -2.553461
  16 C     6.0000    0    12.011    8.592414    0.782586    0.499146
  17 C     6.0000    0    12.011    7.342512    3.111624    0.396117
  18 C     6.0000    0    12.011   -6.778933    1.780755    1.440143
  19 C     6.0000    0    12.011   -7.754582   -0.774228   -2.215510
  20 C     6.0000    0    12.011   -8.576811    0.757572   -0.236310
  21 H     1.0000    0     1.008   -0.123097   -2.885284    2.325781
  22 H     1.0000    0     1.008   -0.218007   -1.297710   -3.201597
  23 H     1.0000    0     1.008    3.191994   -4.682678   -2.038751
  24 H     1.0000    0     1.008    3.724060   -5.195644    1.200821
  25 H     1.0000    0     1.008    3.725008    5.009008   -0.023224
  26 H     1.0000    0     1.008   -2.843046    2.059982    2.378202
  27 H     1.0000    0     1.008   -0.755509   -6.840989    0.344401
  28 H     1.0000    0     1.008   -4.592993   -2.510418   -4.098296
  29 H     1.0000    0     1.008   10.632455    0.742272    0.729601
  30 H     1.0000    0     1.008   -9.143195   -1.558637   -3.516504
  31 H     1.0000    0     1.008   10.092610   -3.553037    0.650648
  32 H     1.0000    0     1.008    7.719433    6.707093    0.488646
  33 H     1.0000    0     1.008   -6.231543    3.867159    4.330247
  34 H     1.0000    0     1.008  -12.069969    0.521735   -1.105452

--------------------------------
INTERNAL COORDINATES (ANGSTROEM)
--------------------------------
 O      0   0   0     0.000000000000     0.00000000     0.00000000
 O      1   0   0     3.647992339733     0.00000000     0.00000000
 O      1   2   0     4.778709099773    74.50889883     0.00000000
 O      1   2   3     4.763600531380   134.49551035   357.77337564
 O      1   2   3     5.017327832738    86.47049607   208.71419669
 O      5   1   2     2.661320550558   105.73817513   306.48807229
 C      2   1   3     1.421039268444    24.99604552    38.03892951
 C      1   2   3     1.439115963250    22.35037614   137.86639028
 C      7   2   1     1.532344276880   111.55025129   238.49279738
 C      9   7   2     1.509350706395   111.14008667   163.51004685
 C      1   2   3     1.368474731183   102.29635562   359.63980695
 C      8   1   2     1.512196463267   107.66795441   122.49457968
 C      3   1   2     1.370089757490    30.95087530   181.54826553
 C     11   1   2     1.401319069242   115.64683005   182.10249228
 C     12   8   1     1.402262614418   120.70942591   325.72390607
 C     12   8   1     1.394476841903   120.40963939   147.64478981
 C     13   3   1     1.393940373904   121.73048839   179.58359296
 C      4   1   2     1.367647230135    28.73323431     2.55791529
 C      5   1   2     1.368146137085    43.72471254   317.35688570
 C     16  12   8     1.397321792644   120.20749915   177.83395614
 C      6   5   1     1.367466517773    62.72734085     8.36464043
 H      7   2   1     1.102264888006   110.91158689   115.34964719
 H      8   1   2     1.100099022960   108.71572742   241.03929878
 H      9   7   2     1.099887432124   107.83795050    41.43596228
 H      9   7   2     1.098162955134   110.20098268   285.86152135
 H     14  11   1     1.086502634852   119.05549522   358.59855112
 H     15  12   8     1.087684278104   119.39110519     3.27469350
 H      2   1   3     0.969957685638   132.59573570    35.90311694
 H     16  12   8     1.085679841129   120.05675507   358.73300275
 H     17  13   3     1.086618581739   121.65249150     0.34532082
 H     20  16  12     1.089145073352   119.92900428   180.01614347
 H      3   1   2     0.969998917734   139.63585543   184.12421517
 H      4   1   2     0.970049330011    79.96906160   182.10279477
 H      5   1   2     0.970033462850    65.27562190   125.58157780
 H      6   5   1     0.969994174214   171.03248072     8.24904389

---------------------------
INTERNAL COORDINATES (A.U.)
---------------------------
 O      0   0   0     0.000000000000     0.00000000     0.00000000
 O      1   0   0     6.893706460737     0.00000000     0.00000000
 O      1   2   0     9.030451472248    74.50889883     0.00000000
 O      1   2   3     9.001900415710   134.49551035   357.77337564
 O      1   2   3     9.481375527975    86.47049607   208.71419669
 O      5   1   2     5.029166995131   105.73817513   306.48807229
 C      2   1   3     2.685375042907    24.99604552    38.03892951
 C      1   2   3     2.719535045497    22.35037614   137.86639028
 C      7   2   1     2.895711026185   111.55025129   238.49279738
 C      9   7   2     2.852259475127   111.14008667   163.51004685
 C      1   2   3     2.586042463127   102.29635562   359.63980695
 C      8   1   2     2.857637176258   107.66795441   122.49457968
 C      3   1   2     2.589094420546    30.95087530   181.54826553
 C     11   1   2     2.648109267109   115.64683005   182.10249228
 C     12   8   1     2.649892309086   120.70942591   325.72390607
 C     12   8   1     2.635179331292   120.40963939   147.64478981
 C     13   3   1     2.634165553695   121.73048839   179.58359296
 C      4   1   2     2.584478712770    28.73323431     2.55791529
 C      5   1   2     2.585421510273    43.72471254   317.35688570
 C     16  12   8     2.640555509056   120.20749915   177.83395614
 C      6   5   1     2.584137215898    62.72734085     8.36464043
 H      7   2   1     2.082978765368   110.91158689   115.34964719
 H      8   1   2     2.078885873589   108.71572742   241.03929878
 H      9   7   2     2.078486024856   107.83795050    41.43596228
 H      9   7   2     2.075227235621   110.20098268   285.86152135
 H     14  11   1     2.053192423655   119.05549522   358.59855112
 H     15  12   8     2.055425405788   119.39110519     3.27469350
 H      2   1   3     1.832954387347   132.59573570    35.90311694
 H     16  12   8     2.051637568853   120.05675507   358.73300275
 H     17  13   3     2.053411531517   121.65249150     0.34532082
 H     20  16  12     2.058185908745   119.92900428   180.01614347
 H      3   1   2     1.833032304717   139.63585543   184.12421517
 H      4   1   2     1.833127570114    79.96906160   182.10279477
 H      5   1   2     1.833097585525    65.27562190   125.58157780
 H      6   5   1     1.833023340764   171.03248072     8.24904389

------------------------------------------------------------------------------
                   ___                                                        
                  /   \      - P O W E R E D   B Y -                         
                 /     \                                                     
                 |  |  |   _    _      __       _____    __    __             
                 |  |  |  | |  | |    /  \     |  _  \  |  |  /  |          
                  \  \/   | |  | |   /    \    | | | |  |  | /  /          
                 / \  \   | |__| |  /  /\  \   | |_| |  |  |/  /          
                |  |  |   |  __  | /  /__\  \  |    /   |      \           
                |  |  |   | |  | | |   __   |  |    \   |  |\   \          
                \     /   | |  | | |  |  |  |  | |\  \  |  | \   \       
                 \___/    |_|  |_| |__|  |__|  |_| \__\ |__|  \__/        
                                                                              
                      - O R C A' S   B I G   F R I E N D -                    
                                      &                                       
                       - I N T E G R A L  F E E D E R -                       
                                                                              
 v1 FN, 2020, v2 2021, v3 2022-2024                                           
------------------------------------------------------------------------------


----------------------
SHARK INTEGRAL PACKAGE
----------------------

Number of atoms                             ...     35
Number of basis functions                   ...    322
Number of shells                            ...    154
Maximum angular momentum                    ...      2
Integral batch strategy                     ... SHARK/LIBINT Hybrid
RI-J (if used) integral strategy            ... SPLIT-RIJ (Revised 2003 algorithm where possible)
Printlevel                                  ...      1
Contraction scheme used                     ... SEGMENTED contraction
Prescreening option                         ... SCHWARTZ
   Thresh                                   ... 2.500e-11
   Tcut                                     ... 2.500e-12
   Tpresel                                  ... 2.500e-12 
Coulomb Range Separation                    ... NOT USED
Exchange Range Separation                   ... NOT USED
Multipole approximations                    ... NOT USED
Finite Nucleus Model                        ... NOT USED
CABS basis                                  ... NOT available
Auxiliary Coulomb fitting basis             ... AVAILABLE
   # of basis functions in Aux-J            ...   1183
   # of shells in Aux-J                     ...    385
   Maximum angular momentum in Aux-J        ...      4
Auxiliary J/K fitting basis                 ... NOT available
Auxiliary Correlation fitting basis         ... NOT available
Auxiliary 'external' fitting basis          ... NOT available

Checking pre-screening integrals            ... done (  0.0 sec) Dimension = 154
   => SHARK Basis and OBASIS are compatible. Storing Pre-screening
Shell pair information
Shell pair cut-off parameter TPreSel        ...   2.5e-12
Total number of shell pairs                 ...     11935
Shell pairs after pre-screening             ...      8453
Total number of primitive shell pairs       ...     69489
Primitive shell pairs kept                  ...     27597
          la=0 lb=0:   2815 shell pairs
          la=1 lb=0:   2887 shell pairs
          la=1 lb=1:    743 shell pairs
          la=2 lb=0:   1216 shell pairs
          la=2 lb=1:    651 shell pairs
          la=2 lb=2:    141 shell pairs

Checking whether 4 symmetric matrices of dimension 322 fit in memory
:Max Core in MB      =   4096.00
 MB in use           =     15.95
 MB left             =   4080.05
 MB needed           =      1.59
 Data fit in memory  = YES
Calculating RI/J V-Matrix + Cholesky decomp.... done (  0.3 sec)
Calculating Nuclear repulsion               ... done (  0.0 sec) ENN=   1638.791174744574 Eh

Diagonalization of the overlap matrix:
Smallest eigenvalue                        ... 3.961e-04
Time for diagonalization                   ...    0.009 sec
Threshold for overlap eigenvalues          ... 1.000e-07
Number of eigenvalues below threshold      ... 0
Time for construction of square roots      ...    0.018 sec
Total time needed                          ...    0.043 sec

-------------------
DFT GRID GENERATION
-------------------

General Integration Accuracy     IntAcc      ... 4.388
Radial Grid Type                 RadialGrid  ... OptM3 with GC (2021)
Angular Grid (max. ang.)         AngularGrid ... 4 (Lebedev-302)
Angular grid pruning method      GridPruning ... 4 (adaptive)
Weight generation scheme         WeightScheme... mBecke (2022)
Basis function cutoff            BFCut       ... 1.0000e-11
Integration weight cutoff        WCut        ... 1.0000e-14
Partially contracted basis set               ... off
Rotationally invariant grid construction     ... off
Angular grids for H and He will be reduced by one unit

Total number of grid points                  ...   170399
Total number of batches                      ...     2679
Average number of points per batch           ...       63
Average number of grid points per atom       ...     4869

--------------------
COSX GRID GENERATION
--------------------

GRIDX 1
-------
General Integration Accuracy     IntAcc      ... 3.816
Radial Grid Type                 RadialGrid  ... OptM3 with GC (2021)
Angular Grid (max. ang.)         AngularGrid ... 1 (Lebedev-50)
Angular grid pruning method      GridPruning ... 4 (adaptive)
Weight generation scheme         WeightScheme... mBecke (2022)
Basis function cutoff            BFCut       ... 1.0000e-11
Integration weight cutoff        WCut        ... 1.0000e-14
Partially contracted basis set               ... on
Rotationally invariant grid construction     ... off
Angular grids for H and He will be reduced by one unit

Total number of grid points                  ...    21682
Total number of batches                      ...      190
Average number of points per batch           ...      114
Average number of grid points per atom       ...      619
UseSFitting                                  ... on

GRIDX 2
-------
General Integration Accuracy     IntAcc      ... 4.020
Radial Grid Type                 RadialGrid  ... OptM3 with GC (2021)
Angular Grid (max. ang.)         AngularGrid ... 2 (Lebedev-110)
Angular grid pruning method      GridPruning ... 4 (adaptive)
Weight generation scheme         WeightScheme... mBecke (2022)
Basis function cutoff            BFCut       ... 1.0000e-11
Integration weight cutoff        WCut        ... 1.0000e-14
Partially contracted basis set               ... on
Rotationally invariant grid construction     ... off
Angular grids for H and He will be reduced by one unit

Total number of grid points                  ...    47494
Total number of batches                      ...      388
Average number of points per batch           ...      122
Average number of grid points per atom       ...     1357
UseSFitting                                  ... on

GRIDX 3
-------
General Integration Accuracy     IntAcc      ... 4.338
Radial Grid Type                 RadialGrid  ... OptM3 with GC (2021)
Angular Grid (max. ang.)         AngularGrid ... 3 (Lebedev-194)
Angular grid pruning method      GridPruning ... 4 (adaptive)
Weight generation scheme         WeightScheme... mBecke (2022)
Basis function cutoff            BFCut       ... 1.0000e-11
Integration weight cutoff        WCut        ... 1.0000e-14
Partially contracted basis set               ... on
Rotationally invariant grid construction     ... off
Angular grids for H and He will be reduced by one unit

Total number of grid points                  ...   104057
Total number of batches                      ...      830
Average number of points per batch           ...      125
Average number of grid points per atom       ...     2973
UseSFitting                                  ... on
Grids setup in   5.4 sec
Initializing property integral containers    ... done (  0.0 sec)

SHARK setup successfully completed in   6.3 seconds

Maximum memory used throughout the entire STARTUP-calculation: 72.8 MB
Occupation numbers will be reassigned to an Aufbau configuration
             **** ENERGY FILE WAS UPDATED (Catechin.en.tmp) ****
Finished Guess after   0.6 sec
Maximum memory used throughout the entire GUESS-calculation: 26.1 MB
----------------------------------------D-I-I-S--------------------------------------------
Iteration    Energy (Eh)           Delta-E    RMSDP     MaxDP     DIISErr   Damp  Time(sec)
-------------------------------------------------------------------------------------------
               ***  Starting incremental Fock matrix formation  ***
                              *** Initializing SOSCF ***
---------------------------------------S-O-S-C-F--------------------------------------
Iteration    Energy (Eh)           Delta-E    RMSDP     MaxDP     MaxGrad    Time(sec)
--------------------------------------------------------------------------------------
    1    -1030.7417039029107855     0.00e+00  1.88e-05  1.11e-03  7.86e-05    18.3
               *** Restarting incremental Fock matrix formation ***
    2    -1030.7417103764953481    -6.47e-06  9.59e-06  4.56e-04  1.07e-04    18.1
    3    -1030.7417110963926916    -7.20e-07  3.56e-06  1.34e-04  2.07e-05    12.6
    4    -1030.7417110654193948     3.10e-08  1.88e-06  6.85e-05  2.92e-05     9.9
    5    -1030.7417111346433103    -6.92e-08  6.93e-07  1.66e-05  5.82e-06     9.0
    6    -1030.7417111439624477    -9.32e-09  3.94e-07  1.35e-05  7.58e-06     8.2
                 **** Energy Check signals convergence ****

               *****************************************************
               *                     SUCCESS                       *
               *           SCF CONVERGED AFTER   6 CYCLES          *
               *****************************************************

Recomputing exchange energy using gridx3       ... done (   28.006 sec)
Old exchange energy                            :    -26.464017365 Eh
New exchange energy                            :    -26.464036729 Eh
Exchange energy change after final integration :     -0.000019364 Eh
Total energy after final integration           :  -1030.741730498 Eh
             **** ENERGY FILE WAS UPDATED (Catechin.en.tmp) ****

----------------
TOTAL SCF ENERGY
----------------

Total Energy       :      -1030.74173049779006 Eh          -28047.90841 eV

Components:
Nuclear Repulsion  :       1638.79117474457439 Eh           44593.77497 eV
Electronic Energy  :      -2669.53288587877341 Eh          -72641.68286 eV
One Electron Energy:      -4664.59047494888728 Eh         -126929.95982 eV
Two Electron Energy:       1995.05758907011409 Eh           54288.27696 eV

Virial components:
Potential Energy   :      -2055.64094601480292 Eh          -55936.83391 eV
Kinetic Energy     :       1024.89921551701286 Eh           27888.92550 eV
Virial Ratio       :          2.00570057513199

DFT components:
N(Alpha)           :       75.999981369573 electrons
N(Beta)            :       75.999981369573 electrons
N(Total)           :      151.999962739146 electrons
E(X)               :     -105.196515886645 Eh       
E(C)               :       -6.208122004027 Eh       
E(XC)              :     -111.404637890673 Eh       

---------------
SCF CONVERGENCE
---------------

  Last Energy change         ...    9.3191e-09  Tolerance :   1.0000e-08
  Last MAX-Density change    ...    1.3478e-05  Tolerance :   1.0000e-07
  Last RMS-Density change    ...    3.9423e-07  Tolerance :   5.0000e-09
  Last DIIS Error            ...    9.3925e-04  Tolerance :   5.0000e-07
  Last Orbital Gradient      ...    7.5763e-06  Tolerance :   1.0000e-05
  Last Orbital Rotation      ...    1.2007e-05  Tolerance :   1.0000e-05


Total SCF time: 0 days 0 hours 1 min 53 sec 
Finished LeanSCF after 114.2 sec

Maximum memory used throughout the entire LEANSCF-calculation: 50.5 MB

------------------------------------------------------------------------------
                         ORCA PROPERTY INTEGRAL CALCULATIONS
------------------------------------------------------------------------------

GBWName                                   ... Catechin.gbw
Number of atoms                           ...     35
Number of basis functions                 ...    322
Max core memory                           ...   4096 MB

Dipole integrals                          ... YES
Quadrupole integrals                      ...  NO
Linear momentum integrals                 ...  NO
Angular momentum integrals                ...  NO
Higher moments length integrals           ...  NO
Higher moments velocity integrals         ...  NO
Kinetic energy integrals                  ...  NO
GIAO right hand sides                     ...  NO
GIAO dipole derivative integrals          ...  NO
SOC integrals                             ...  NO
EPR diamagnetic integrals (GIAO)          ...  NO
EPR gauge integrals                       ...  NO
Field gradient integrals                  ...  NO (   0 nuclei)
Spin-dipole/Fermi contact integrals       ...  NO (   0 nuclei)
Contact density integrals                 ...  NO (   0 nuclei)
Nucleus-orbit integrals                   ...  NO (   0 nuclei)
Geometric perturbations                   ...  NO (  35 nuclei)

Choice of electric origin   ... Center of mass
Position of electric origin ... ( -0.0082,  0.0194,  0.0592) 
Choice of magnetic origin   ... GIAO
Position of magnetic origin ... (  0.0000,  0.0000,  0.0000) 

Calculating integrals                     ... Electric Dipole (Length)     done (  0.1 sec)

Property integrals calculated in   0.1 sec

Maximum memory used throughout the entire PROPINT-calculation: 25.9 MB

-------------------------   --------------------
FINAL SINGLE POINT ENERGY     -1030.741730497790
-------------------------   --------------------

------------------------------------------------------------------------------
                         ORCA SCF GRADIENT CALCULATION
------------------------------------------------------------------------------

Nuc. rep. gradient        (SHARK) ... done (  0.0 sec)
HCore & Overlap gradient  (SHARK) ... done (  1.0 sec)
Split-RIJ-J gradient      (SHARK) ... done (  4.9 sec)
COSX-gradient                     ... done ( 64.8 sec)
XC gradient                       ... done ( 14.0 sec)

------------------
CARTESIAN GRADIENT
------------------

   1   O   :   -0.000133925   -0.000044951   -0.000083139
   2   O   :    0.000086328    0.000033114   -0.000010264
   3   O   :    0.000010396    0.000020594   -0.000017841
   4   O   :   -0.000007364    0.000025892   -0.000011673
   5   O   :    0.000064502   -0.000015139    0.000019884
   6   O   :   -0.000016457   -0.000041318   -0.000046005
   7   C   :   -0.000126501   -0.000105515    0.000000388
   8   C   :    0.000144792    0.000154677    0.000015406
   9   C   :    0.000047227    0.000004450   -0.000030243
  10   C   :    0.000032395    0.000113101    0.000017475
  11   C   :    0.000039284   -0.000152450    0.000004458
  12   C   :   -0.000128451   -0.000104872   -0.000016970
  13   C   :   -0.000038386   -0.000091690   -0.000001614
  14   C   :    0.000101709    0.000043684    0.000013849
  15   C   :   -0.000009167    0.000115760    0.000118282
  16   C   :    0.000135089    0.000049327    0.000077536
  17   C   :    0.000008764   -0.000018970   -0.000000911
  18   C   :   -0.000007826    0.000011913    0.000000027
  19   C   :   -0.000129094   -0.000073390   -0.000124812
  20   C   :   -0.000099331   -0.000048681   -0.000069125
  21   C   :    0.000129155    0.000078629    0.000100685
  22   H   :   -0.000018821   -0.000008085   -0.000000761
  23   H   :    0.000012189    0.000024570   -0.000000565
  24   H   :   -0.000010783    0.000000031    0.000004582
  25   H   :    0.000000932   -0.000010809   -0.000002877
  26   H   :   -0.000039041   -0.000015875   -0.000003037
  27   H   :    0.000045079   -0.000039563   -0.000035737
  28   H   :   -0.000037590    0.000026653    0.000037916
  29   H   :   -0.000018196   -0.000004337   -0.000002016
  30   H   :    0.000005296    0.000017878    0.000000550
  31   H   :    0.000003790    0.000004705    0.000004974
  32   H   :   -0.000011938    0.000012073    0.000013745
  33   H   :    0.000008096   -0.000004387    0.000009193
  34   H   :   -0.000027137    0.000020073    0.000000539
  35   H   :   -0.000015016    0.000022908    0.000018099

Difference to translation invariance:
           :   -0.0000000001    0.0000000001   -0.0000000000

Difference to rotation invariance:
           :    0.0000149981   -0.0000377403   -0.0000957544

Norm of the Cartesian gradient     ...    0.0006069149
RMS gradient                       ...    0.0000592288
MAX gradient                       ...    0.0001546773

-------
TIMINGS
-------

Total SCF gradient time     ....       84.775 sec

Densities                   ....       0.002 sec  (  0.0%)
One electron gradient       ....       0.973 sec  (  1.1%)
RI-J Coulomb gradient       ....       4.926 sec  (  5.8%)
COSX gradient               ....      64.846 sec  ( 76.5%)
XC gradient                 ....      14.026 sec  ( 16.5%)

Maximum memory used throughout the entire SCFGRAD-calculation: 56.7 MB
------------------------------------------------------------------------------
                         ORCA GEOMETRY RELAXATION STEP
------------------------------------------------------------------------------

Reading the OPT-File                    .... done
Getting information on internals        .... done
Copying old internal coords+grads       .... done
Making the new internal coordinates     .... (2022 redundants) done
Validating the new internal coordinates .... (2022 redundants) done
Calculating the B-matrix                .... done
Calculating the G,G- and P matrices     .... done
Transforming gradient to internals      .... done
Projecting the internal gradient        .... done
Number of atoms                         ....  35
Number of internal coordinates          .... 183
Current Energy                          .... -1030.741730498 Eh
Current gradient norm                   ....     0.000606915 Eh/bohr
Maximum allowed component of the step   ....  0.300
Current trust radius                    ....  0.450
Updating the Hessian (BFGS)             .... done
Forming the augmented Hessian           .... done
Diagonalizing the augmented Hessian     .... done
Last element of RFO vector              ....  0.999978212
Lowest eigenvalues of augmented Hessian:
 -0.000000903  0.002366072  0.011922822  0.015072353  0.019353831
Length of the computed step             ....  0.006601284
The final length of the internal step   ....  0.006601284
Converting the step to Cartesian space:
 Initial RMS(Int)=    0.0004879809
Transforming coordinates:
 Iter   0:  RMS(Cart)=    0.0009716812 RMS(Int)=    0.0004879592
done
Storing new coordinates                 .... done
The predicted energy change is          ....    -0.000000452
Previously predicted energy change      ....    -0.000001892
Actually observed energy change         ....    -0.000010073
Ratio of predicted to observed change   ....     5.322579645
New trust radius                        ....     0.300000000

                                .--------------------.
          ----------------------|Geometry convergence|-------------------------
          Item                value                   Tolerance       Converged
          ---------------------------------------------------------------------
          Energy change      -0.0000100726            0.0000050000      NO
          RMS gradient        0.0000267400            0.0001000000      YES
          MAX gradient        0.0001172835            0.0003000000      YES
          RMS step            0.0004879809            0.0020000000      YES
          MAX step            0.0034817511            0.0040000000      YES
          -------------------------------------------------------------------------
          ........................................................
          Max(Bonds)      0.0002      Max(Angles)    0.03
          Max(Dihed)        0.20      Max(Improp)    0.00
          ---------------------------------------------------------------------

       Everything but the energy has converged. However, the energy
       appears to be close enough to convergence to make sure that the
       final evaluation at the new geometry represents the equilibrium energy.
       Convergence will therefore be signaled now


                    ***********************HURRAY********************
                    ***        THE OPTIMIZATION HAS CONVERGED     ***
                    *************************************************


    ---------------------------------------------------------------------------
                         Redundant Internal Coordinates

                          --- Optimized Parameters ---  
                            (Angstroem and degrees)

        Definition                    OldVal   dE/dq     Step     FinalVal
    ----------------------------------------------------------------------------
     1. B(C   6,O   1)                1.4210 -0.000082  0.0002    1.4212   
     2. B(C   7,O   0)                1.4391 -0.000117  0.0002    1.4393   
     3. B(C   7,C   6)                1.5409  0.000024 -0.0002    1.5408   
     4. B(C   8,C   6)                1.5323  0.000062 -0.0001    1.5322   
     5. B(C   9,C   8)                1.5094  0.000021  0.0000    1.5094   
     6. B(C  10,C   9)                1.3989 -0.000066  0.0001    1.3990   
     7. B(C  10,O   0)                1.3685  0.000086 -0.0001    1.3684   
     8. B(C  11,C   7)                1.5122  0.000060 -0.0001    1.5121   
     9. B(C  12,C   9)                1.4055 -0.000011 -0.0000    1.4054   
    10. B(C  12,O   2)                1.3701 -0.000031  0.0000    1.3701   
    11. B(C  13,C  10)                1.4013  0.000047 -0.0001    1.4012   
    12. B(C  14,C  11)                1.4023  0.000039 -0.0001    1.4021   
    13. B(C  15,C  11)                1.3945 -0.000081  0.0001    1.3946   
    14. B(C  16,C  12)                1.3939  0.000042 -0.0000    1.3939   
    15. B(C  17,O   3)                1.3676  0.000018 -0.0000    1.3676   
    16. B(C  17,C  16)                1.3998  0.000021 -0.0000    1.3998   
    17. B(C  17,C  13)                1.3931 -0.000023  0.0001    1.3931   
    18. B(C  18,C  14)                1.3926  0.000021  0.0000    1.3927   
    19. B(C  18,O   4)                1.3681  0.000005  0.0000    1.3682   
    20. B(C  19,C  15)                1.3973  0.000043 -0.0001    1.3972   
    21. B(C  20,C  19)                1.3940  0.000025  0.0000    1.3941   
    22. B(C  20,C  18)                1.4090 -0.000076 -0.0000    1.4090   
    23. B(C  20,O   5)                1.3675  0.000021  0.0000    1.3675   
    24. B(H  21,C   6)                1.1023  0.000001  0.0000    1.1023   
    25. B(H  22,C   7)                1.1001 -0.000001  0.0000    1.1001   
    26. B(H  23,C   8)                1.0999 -0.000005  0.0000    1.0999   
    27. B(H  24,C   8)                1.0982  0.000006 -0.0000    1.0982   
    28. B(H  25,C  13)                1.0865  0.000006 -0.0000    1.0865   
    29. B(H  26,C  14)                1.0877 -0.000008  0.0000    1.0877   
    30. B(H  27,O   1)                0.9700 -0.000016  0.0000    0.9700   
    31. B(H  28,C  15)                1.0857 -0.000001 -0.0000    1.0857   
    32. B(H  29,C  16)                1.0866  0.000005 -0.0000    1.0866   
    33. B(H  30,C  19)                1.0891 -0.000007  0.0000    1.0892   
    34. B(H  31,O   2)                0.9700 -0.000008  0.0000    0.9700   
    35. B(H  32,O   3)                0.9700 -0.000008  0.0000    0.9701   
    36. B(H  33,O   4)                0.9700 -0.000015  0.0000    0.9701   
    37. B(H  34,O   5)                0.9700 -0.000015  0.0000    0.9700   
    38. A(C   7,O   0,C  10)          118.30 -0.000018    0.01    118.31   
    39. A(C   6,O   1,H  27)          107.61 -0.000012   -0.01    107.60   
    40. A(C  12,O   2,H  31)          108.71 -0.000026    0.00    108.71   
    41. A(C  17,O   3,H  32)          108.70  0.000009   -0.00    108.70   
    42. A(C  18,O   4,H  33)          108.20  0.000050   -0.02    108.19   
    43. A(C  20,O   5,H  34)          108.31  0.000052   -0.02    108.29   
    44. A(O   1,C   6,C   8)          111.55 -0.000001    0.00    111.55   
    45. A(C   8,C   6,H  21)          110.12  0.000029   -0.01    110.10   
    46. A(C   7,C   6,C   8)          109.75 -0.000024    0.01    109.76   
    47. A(O   1,C   6,C   7)          106.91  0.000026   -0.01    106.90   
    48. A(C   7,C   6,H  21)          107.46 -0.000015    0.01    107.47   
    49. A(O   1,C   6,H  21)          110.91 -0.000017    0.00    110.91   
    50. A(C   6,C   7,C  11)          113.76 -0.000081    0.03    113.79   
    51. A(C  11,C   7,H  22)          109.50  0.000025   -0.01    109.49   
    52. A(C   6,C   7,H  22)          107.55  0.000021   -0.00    107.54   
    53. A(O   0,C   7,C  11)          107.67  0.000039   -0.01    107.66   
    54. A(O   0,C   7,H  22)          108.72 -0.000029    0.01    108.72   
    55. A(O   0,C   7,C   6)          109.56  0.000026   -0.02    109.54   
    56. A(C   6,C   8,C   9)          111.14  0.000011   -0.00    111.14   
    57. A(C   9,C   8,H  24)          110.11  0.000010    0.00    110.11   
    58. A(C   6,C   8,H  24)          110.20 -0.000003   -0.00    110.20   
    59. A(C   9,C   8,H  23)          111.16 -0.000003   -0.01    111.15   
    60. A(C   6,C   8,H  23)          107.84 -0.000011    0.01    107.85   
    61. A(H  23,C   8,H  24)          106.25 -0.000005    0.00    106.26   
    62. A(C   8,C   9,C  10)          120.81 -0.000029    0.00    120.81   
    63. A(C  10,C   9,C  12)          117.23  0.000023   -0.00    117.23   
    64. A(C   8,C   9,C  12)          121.96  0.000006   -0.00    121.96   
    65. A(C   9,C  10,C  13)          122.00 -0.000007    0.00    122.01   
    66. A(O   0,C  10,C  13)          115.65 -0.000029    0.01    115.66   
    67. A(O   0,C  10,C   9)          122.34  0.000036   -0.01    122.33   
    68. A(C  14,C  11,C  15)          118.85  0.000024   -0.01    118.85   
    69. A(C   7,C  11,C  15)          120.41 -0.000025   -0.00    120.41   
    70. A(C   7,C  11,C  14)          120.71  0.000001    0.01    120.72   
    71. A(O   2,C  12,C   9)          116.15  0.000037   -0.01    116.14   
    72. A(C   9,C  12,C  16)          122.12 -0.000015    0.00    122.12   
    73. A(O   2,C  12,C  16)          121.73 -0.000022    0.01    121.74   
    74. A(C  17,C  13,H  25)          121.92  0.000035   -0.01    121.91   
    75. A(C  10,C  13,H  25)          119.06 -0.000052    0.02    119.07   
    76. A(C  10,C  13,C  17)          119.02  0.000017   -0.00    119.02   
    77. A(C  11,C  14,C  18)          121.27 -0.000047    0.01    121.28   
    78. A(C  11,C  14,H  26)          119.39 -0.000047    0.01    119.40   
    79. A(C  18,C  14,H  26)          119.32  0.000094   -0.02    119.30   
    80. A(C  11,C  15,C  19)          120.21  0.000021   -0.01    120.20   
    81. A(C  19,C  15,H  28)          119.73 -0.000029    0.01    119.74   
    82. A(C  11,C  15,H  28)          120.06  0.000008   -0.00    120.05   
    83. A(C  17,C  16,H  29)          119.41 -0.000022    0.00    119.42   
    84. A(C  12,C  16,H  29)          121.65  0.000016   -0.00    121.65   
    85. A(C  12,C  16,C  17)          118.94  0.000005    0.00    118.94   
    86. A(C  13,C  17,C  16)          120.69 -0.000023    0.00    120.69   
    87. A(O   3,C  17,C  16)          116.91  0.000024   -0.00    116.91   
    88. A(O   3,C  17,C  13)          122.40 -0.000001   -0.00    122.40   
    89. A(C  14,C  18,C  20)          119.61  0.000024   -0.00    119.61   
    90. A(O   4,C  18,C  20)          117.16  0.000018    0.00    117.17   
    91. A(O   4,C  18,C  14)          123.22 -0.000041    0.00    123.23   
    92. A(C  20,C  19,H  30)          119.07  0.000023    0.00    119.08   
    93. A(C  15,C  19,H  30)          119.93  0.000027   -0.01    119.92   
    94. A(C  15,C  19,C  20)          121.00 -0.000050    0.01    121.01   
    95. A(O   5,C  20,C  18)          117.32  0.000013    0.00    117.32   
    96. A(C  18,C  20,C  19)          119.06  0.000028   -0.01    119.05   
    97. A(O   5,C  20,C  19)          123.62 -0.000040    0.01    123.62   
    98. D(C   8,C   6,O   1,H  27)     56.84  0.000046   -0.20     56.64   
    99. D(H  21,C   6,O   1,H  27)    -66.30  0.000021   -0.19    -66.49   
   100. D(C   7,C   6,O   1,H  27)    176.83  0.000033   -0.19    176.64   
   101. D(O   0,C   7,C   6,O   1)    178.27 -0.000002   -0.00    178.27   
   102. D(C  11,C   7,O   0,C  10)    170.16 -0.000048    0.04    170.20   
   103. D(H  22,C   7,O   0,C  10)    -71.29 -0.000012    0.02    -71.27   
   104. D(C  11,C   7,C   6,O   1)     57.72 -0.000015   -0.00     57.72   
   105. D(O   0,C   7,C   6,C   8)    -60.59 -0.000001   -0.00    -60.59   
   106. D(C  11,C   7,C   6,H  21)    -61.40 -0.000002   -0.00    -61.41   
   107. D(C  11,C   7,C   6,C   8)    178.86 -0.000014    0.00    178.86   
   108. D(C   6,C   7,O   0,C  10)     45.98  0.000011    0.02     45.99   
   109. D(O   0,C   7,C   6,H  21)     59.15  0.000012   -0.01     59.14   
   110. D(C   9,C   8,C   6,H  21)    -72.89 -0.000003   -0.01    -72.91   
   111. D(C   9,C   8,C   6,O   1)    163.51 -0.000002   -0.01    163.50   
   112. D(C   9,C   8,C   6,C   7)     45.21 -0.000018   -0.00     45.21   
   113. D(H  23,C   8,C   6,O   1)     41.44  0.000002   -0.01     41.43   
   114. D(H  23,C   8,C   6,C   7)    -76.87 -0.000014    0.00    -76.86   
   115. D(H  23,C   8,C   6,H  21)    165.03  0.000001   -0.01    165.02   
   116. D(C  12,C   9,C   8,C   6)    163.03  0.000002    0.01    163.04   
   117. D(C  10,C   9,C   8,H  23)    103.93 -0.000009    0.02    103.95   
   118. D(C  10,C   9,C   8,H  24)   -138.59 -0.000011    0.02   -138.57   
   119. D(C  12,C   9,C   8,H  23)    -76.85 -0.000006    0.01    -76.83   
   120. D(C  10,C   9,C   8,C   6)    -16.19 -0.000001    0.01    -16.18   
   121. D(C  13,C  10,C   9,C  12)     -0.68 -0.000003    0.01     -0.67   
   122. D(C  13,C  10,C   9,C   8)    178.58  0.000000    0.00    178.58   
   123. D(O   0,C  10,C   9,C  12)   -179.41 -0.000002    0.01   -179.40   
   124. D(O   0,C  10,C   9,C   8)     -0.16  0.000001    0.00     -0.15   
   125. D(C  13,C  10,O   0,C   7)    165.38 -0.000003   -0.02    165.36   
   126. D(C   9,C  10,O   0,C   7)    -15.81 -0.000004   -0.02    -15.83   
   127. D(C  14,C  11,C   7,C   6)     87.33  0.000015   -0.05     87.28   
   128. D(C  14,C  11,C   7,O   0)    -34.28  0.000007   -0.04    -34.32   
   129. D(C  15,C  11,C   7,C   6)    -90.75  0.000008   -0.04    -90.78   
   130. D(C  15,C  11,C   7,O   0)    147.64 -0.000000   -0.03    147.62   
   131. D(C  14,C  11,C   7,H  22)   -152.31  0.000005   -0.04   -152.35   
   132. D(C  16,C  12,C   9,C  10)      0.58  0.000001   -0.00      0.58   
   133. D(C  16,C  12,C   9,C   8)   -178.66 -0.000002    0.00   -178.66   
   134. D(O   2,C  12,C   9,C  10)   -179.72  0.000002   -0.01   -179.72   
   135. D(O   2,C  12,C   9,C   8)      1.04 -0.000001   -0.00      1.04   
   136. D(C  16,C  12,O   2,H  31)      1.34  0.000013   -0.05      1.30   
   137. D(C   9,C  12,O   2,H  31)   -178.36  0.000013   -0.05   -178.41   
   138. D(H  25,C  13,C  10,C   9)    179.79  0.000002   -0.00    179.78   
   139. D(C  17,C  13,C  10,O   0)    179.10  0.000003   -0.01    179.09   
   140. D(C  17,C  13,C  10,C   9)      0.29  0.000003   -0.01      0.28   
   141. D(H  25,C  13,C  10,O   0)     -1.40  0.000002   -0.00     -1.40   
   142. D(H  26,C  14,C  11,C  15)   -178.62 -0.000002   -0.00   -178.62   
   143. D(H  26,C  14,C  11,C   7)      3.27 -0.000008    0.01      3.29   
   144. D(C  18,C  14,C  11,C  15)     -0.08  0.000002   -0.01     -0.08   
   145. D(C  18,C  14,C  11,C   7)   -178.18 -0.000004    0.01   -178.18   
   146. D(H  28,C  15,C  11,C  14)   -179.38  0.000000    0.00   -179.38   
   147. D(H  28,C  15,C  11,C   7)     -1.27  0.000007   -0.01     -1.28   
   148. D(C  19,C  15,C  11,C  14)     -0.28 -0.000002    0.01     -0.27   
   149. D(C  19,C  15,C  11,C   7)    177.83  0.000005   -0.01    177.83   
   150. D(H  29,C  16,C  12,C   9)   -179.97  0.000001   -0.00   -179.97   
   151. D(H  29,C  16,C  12,O   2)      0.35  0.000000   -0.00      0.34   
   152. D(C  17,C  16,C  12,C   9)     -0.10  0.000000    0.00     -0.10   
   153. D(C  17,C  16,C  12,O   2)   -179.78 -0.000000    0.00   -179.78   
   154. D(C  16,C  17,C  13,H  25)   -179.25  0.000000   -0.00   -179.25   
   155. D(C  16,C  17,C  13,C  10)      0.23 -0.000002    0.01      0.24   
   156. D(O   3,C  17,C  13,H  25)      0.37 -0.000000    0.00      0.37   
   157. D(O   3,C  17,C  13,C  10)    179.85 -0.000002    0.01    179.86   
   158. D(C  16,C  17,O   3,H  32)    179.58  0.000007   -0.03    179.55   
   159. D(O   3,C  17,C  16,C  12)   -179.97  0.000001   -0.00   -179.97   
   160. D(C  13,C  17,O   3,H  32)     -0.06  0.000007   -0.03     -0.09   
   161. D(C  13,C  17,C  16,H  29)    179.55 -0.000000    0.00    179.56   
   162. D(C  13,C  17,C  16,C  12)     -0.32  0.000000   -0.00     -0.32   
   163. D(O   3,C  17,C  16,H  29)     -0.09  0.000000    0.00     -0.09   
   164. D(C  20,C  18,C  14,H  26)    178.90  0.000000   -0.00    178.90   
   165. D(C  20,C  18,C  14,C  11)      0.36 -0.000002    0.01      0.36   
   166. D(O   4,C  18,C  14,H  26)     -0.92  0.000000    0.00     -0.91   
   167. D(O   4,C  18,C  14,C  11)   -179.46 -0.000002    0.01   -179.45   
   168. D(C  20,C  18,O   4,H  33)   -179.42  0.000011   -0.04   -179.46   
   169. D(C  14,C  18,O   4,H  33)      0.40  0.000012   -0.05      0.36   
   170. D(H  30,C  19,C  15,H  28)     -0.88 -0.000001    0.00     -0.88   
   171. D(H  30,C  19,C  15,C  11)   -179.98  0.000001   -0.00   -179.98   
   172. D(C  20,C  19,C  15,H  28)    179.46  0.000000   -0.00    179.46   
   173. D(C  20,C  19,C  15,C  11)      0.36  0.000002   -0.00      0.35   
   174. D(C  18,C  20,C  19,H  30)   -179.73 -0.000001   -0.00   -179.74   
   175. D(C  18,C  20,C  19,C  15)     -0.07 -0.000002    0.00     -0.07   
   176. D(O   5,C  20,C  19,H  30)     -0.09  0.000001   -0.01     -0.10   
   177. D(O   5,C  20,C  19,C  15)    179.57  0.000000   -0.00    179.57   
   178. D(C  19,C  20,C  18,C  14)     -0.28  0.000002   -0.00     -0.28   
   179. D(C  19,C  20,C  18,O   4)    179.55  0.000002   -0.01    179.54   
   180. D(O   5,C  20,C  18,C  14)   -179.95  0.000000    0.00   -179.94   
   181. D(O   5,C  20,C  18,O   4)     -0.12  0.000000   -0.00     -0.12   
   182. D(C  19,C  20,O   5,H  34)      0.39 -0.000006    0.02      0.41   
   183. D(C  18,C  20,O   5,H  34)   -179.96 -0.000004    0.02   -179.94   
    ----------------------------------------------------------------------------

Geometry step timings:
Preparation and reading OPT file:      0.004 s ( 2.712 %)
Internal coordinates            :      0.003 s ( 1.952 %)
B/P matrices and projection     :      0.008 s ( 6.134 %)
Hessian update/contruction      :      0.023 s (16.819 %)
Making the step                 :      0.007 s ( 5.504 %)
Converting the step to Cartesian:      0.003 s ( 2.015 %)
Storing new data                :      0.003 s ( 2.490 %)
Checking convergence            :      0.006 s ( 4.493 %)
Final printing                  :      0.078 s (57.875 %)
Total time                      :      0.135 s
                 *******************************************************
                 *** FINAL ENERGY EVALUATION AT THE STATIONARY POINT ***
                 ***               (AFTER    9 CYCLES)               ***
                 *******************************************************
---------------------------------
CARTESIAN COORDINATES (ANGSTROEM)
---------------------------------
  O      0.425923    0.646716   -0.201947
  O     -0.703443   -2.821184   -0.275256
  O      4.387117   -1.994240    0.208082
  O      4.658699    2.769504    0.317036
  O     -4.056217    1.739607    1.770384
  O     -5.851588    0.714929    0.094218
  C      0.107227   -1.739488    0.163629
  C     -0.334825   -0.496678   -0.632610
  C      1.594060   -2.012923   -0.086041
  C      2.403100   -0.741525   -0.000915
  C      1.780140    0.509631   -0.061442
  C     -1.800111   -0.159263   -0.472839
  C      3.799497   -0.757567    0.157458
  C      2.503236    1.705216    0.044369
  C     -2.236752    0.654622    0.582082
  C     -2.745850   -0.686915   -1.351540
  C      4.546835    0.414272    0.263829
  C      3.885363    1.646687    0.209184
  C     -3.587461    0.942217    0.762246
  C     -4.103431   -0.408932   -1.172875
  C     -4.538780    0.401360   -0.125334
  H     -0.064766   -1.526857    1.231436
  H     -0.115668   -0.687385   -1.693659
  H      1.689280   -2.478327   -1.078068
  H      1.970648   -2.749277    0.636383
  H      1.971148    2.650790   -0.012604
  H     -1.504960    1.089305    1.259312
  H     -0.397696   -3.620788    0.180833
  H     -2.430431   -1.327759   -2.169174
  H      5.626389    0.392929    0.385663
  H     -4.838071   -0.823680   -1.861762
  H      5.340822   -1.880239    0.343605
  H      4.084795    3.549302    0.257372
  H     -3.297745    2.045012    2.292354
  H     -6.386986    0.276927   -0.585807

----------------------------
CARTESIAN COORDINATES (A.U.)
----------------------------
  NO LB      ZA    FRAG     MASS         X           Y           Z
   0 O     8.0000    0    15.999    0.804879    1.222117   -0.381624
   1 O     8.0000    0    15.999   -1.329314   -5.331264   -0.520158
   2 O     8.0000    0    15.999    8.290450   -3.768568    0.393218
   3 O     8.0000    0    15.999    8.803665    5.233605    0.599111
   4 O     8.0000    0    15.999   -7.665139    3.287381    3.345541
   5 O     8.0000    0    15.999  -11.057898    1.351021    0.178047
   6 C     6.0000    0    12.011    0.202629   -3.287157    0.309213
   7 C     6.0000    0    12.011   -0.632727   -0.938585   -1.195459
   8 C     6.0000    0    12.011    3.012337   -3.803873   -0.162594
   9 C     6.0000    0    12.011    4.541202   -1.401278   -0.001728
  10 C     6.0000    0    12.011    3.363977    0.963064   -0.116109
  11 C     6.0000    0    12.011   -3.401717   -0.300963   -0.893536
  12 C     6.0000    0    12.011    7.180008   -1.431595    0.297552
  13 C     6.0000    0    12.011    4.730430    3.222391    0.083845
  14 C     6.0000    0    12.011   -4.226849    1.237056    1.099975
  15 C     6.0000    0    12.011   -5.188905   -1.298082   -2.554041
  16 C     6.0000    0    12.011    8.592273    0.782861    0.498564
  17 C     6.0000    0    12.011    7.342272    3.111787    0.395301
  18 C     6.0000    0    12.011   -6.779319    1.780531    1.440435
  19 C     6.0000    0    12.011   -7.754360   -0.772769   -2.216412
  20 C     6.0000    0    12.011   -8.577052    0.758461   -0.236847
  21 H     1.0000    0     1.008   -0.122389   -2.885341    2.327076
  22 H     1.0000    0     1.008   -0.218580   -1.298970   -3.200552
  23 H     1.0000    0     1.008    3.192276   -4.683359   -2.037253
  24 H     1.0000    0     1.008    3.723986   -5.195382    1.202590
  25 H     1.0000    0     1.008    3.724931    5.009267   -0.023819
  26 H     1.0000    0     1.008   -2.843963    2.058489    2.379755
  27 H     1.0000    0     1.008   -0.751537   -6.842297    0.341725
  28 H     1.0000    0     1.008   -4.592848   -2.509100   -4.099144
  29 H     1.0000    0     1.008   10.632335    0.742527    0.728797
  30 H     1.0000    0     1.008   -9.142630   -1.556531   -3.518221
  31 H     1.0000    0     1.008   10.092691   -3.553137    0.649319
  32 H     1.0000    0     1.008    7.719144    6.707209    0.486363
  33 H     1.0000    0     1.008   -6.231835    3.864512    4.331922
  34 H     1.0000    0     1.008  -12.069654    0.523317   -1.107015

--------------------------------
INTERNAL COORDINATES (ANGSTROEM)
--------------------------------
 O      0   0   0     0.000000000000     0.00000000     0.00000000
 O      1   0   0     3.647899708911     0.00000000     0.00000000
 O      1   2   0     4.778475885992    74.51181618     0.00000000
 O      1   2   3     4.763608081990   134.50093088   357.78534389
 O      1   2   3     5.017378032748    86.46867033   208.70638409
 O      5   1   2     2.661362651126   105.73541810   306.45429568
 C      2   1   3     1.421220998286    24.99475068    38.03239416
 C      1   2   3     1.439290932852    22.35169781   137.86091549
 C      7   2   1     1.532245372412   111.55280382   238.47927029
 C      9   7   2     1.509386028344   111.13791623   163.50100615
 C      1   2   3     1.368370050851   102.31094034   359.64864579
 C      8   1   2     1.512098010327   107.65650132   122.51199272
 C      3   1   2     1.370116952949    30.95748882   181.53167973
 C     11   1   2     1.401244136777   115.65661708   182.09072223
 C     12   8   1     1.402113031010   120.71722444   325.68136610
 C     12   8   1     1.394616699923   120.40716993   147.61600072
 C     13   3   1     1.393928597744   121.73796465   179.57501594
 C      4   1   2     1.367625714607    28.72975939     2.55196209
 C      5   1   2     1.368176260807    43.72475782   317.33664836
 C     16  12   8     1.397218998219   120.20229895   177.82668692
 C      6   5   1     1.367476507981    62.72700136     8.37486864
 H      7   2   1     1.102272656892   110.91413628   115.35064631
 H      8   1   2     1.100102141507   108.72433328   241.04030901
 H      9   7   2     1.099902061492   107.84705137    41.43083940
 H      9   7   2     1.098150013453   110.19601253   285.85071959
 H     14  11   1     1.086495884613   119.07054100   358.59599939
 H     15  12   8     1.087708532376   119.40015553     3.28722079
 H      2   1   3     0.969981737978   132.58145014    35.65588646
 H     16  12   8     1.085676773953   120.05427933   358.72416523
 H     17  13   3     1.086616917948   121.64781887     0.34445846
 H     20  16  12     1.089164567803   119.91565916   180.01612141
 H      3   1   2     0.970008078518   139.64684531   184.04813478
 H      4   1   2     0.970056443581    79.96974477   182.06166819
 H      5   1   2     0.970054176038    65.26768685   125.49793527
 H      6   5   1     0.970016310331   171.01454516     8.35274484

---------------------------
INTERNAL COORDINATES (A.U.)
---------------------------
 O      0   0   0     0.000000000000     0.00000000     0.00000000
 O      1   0   0     6.893531413852     0.00000000     0.00000000
 O      1   2   0     9.030010762072    74.51181618     0.00000000
 O      1   2   3     9.001914684295   134.50093088   357.78534389
 O      1   2   3     9.481470392246    86.46867033   208.70638409
 O      5   1   2     5.029246553674   105.73541810   306.45429568
 C      2   1   3     2.685718462538    24.99475068    38.03239416
 C      1   2   3     2.719865690127    22.35169781   137.86091549
 C      7   2   1     2.895524123826   111.55280382   238.47927029
 C      9   7   2     2.852326223938   111.13791623   163.50100615
 C      1   2   3     2.585844645968   102.31094034   359.64864579
 C      8   1   2     2.857451127165   107.65650132   122.51199272
 C      3   1   2     2.589145812516    30.95748882   181.53167973
 C     11   1   2     2.647967665272   115.65661708   182.09072223
 C     12   8   1     2.649609637410   120.71722444   325.68136610
 C     12   8   1     2.635443624647   120.40716993   147.61600072
 C     13   3   1     2.634143299977   121.73796465   179.57501594
 C      4   1   2     2.584438054315    28.72975939     2.55196209
 C      5   1   2     2.585478435857    43.72475782   317.33664836
 C     16  12   8     2.640361255747   120.20229895   177.82668692
 C      6   5   1     2.584156094655    62.72700136     8.37486864
 H      7   2   1     2.082993446436   110.91413628   115.35064631
 H      8   1   2     2.078891766789   108.72433328   241.04030901
 H      9   7   2     2.078513670354   107.84705137    41.43083940
 H      9   7   2     2.075202779388   110.19601253   285.85071959
 H     14  11   1     2.053179667552   119.07054100   358.59599939
 H     15  12   8     2.055471239720   119.40015553     3.28722079
 H      2   1   3     1.832999839684   132.58145014    35.65588646
 H     16  12   8     2.051631772730   120.05427933   358.72416523
 H     17  13   3     2.053408387407   121.64781887     0.34445846
 H     20  16  12     2.058222747919   119.91565916   180.01612141
 H      3   1   2     1.833049616090   139.64684531   184.04813478
 H      4   1   2     1.833141012813    79.96974477   182.06166819
 H      5   1   2     1.833136727779    65.26768685   125.49793527
 H      6   5   1     1.833065171963   171.01454516     8.35274484

---------------------
BASIS SET INFORMATION
---------------------
There are 3 groups of distinct atoms

 Group   1 Type O   : 10s4p1d contracted to 3s2p1d pattern {631/31/1}
 Group   2 Type C   : 10s4p1d contracted to 3s2p1d pattern {631/31/1}
 Group   3 Type H   : 4s contracted to 2s pattern {31}

Atom   0O    basis set group =>   1
Atom   1O    basis set group =>   1
Atom   2O    basis set group =>   1
Atom   3O    basis set group =>   1
Atom   4O    basis set group =>   1
Atom   5O    basis set group =>   1
Atom   6C    basis set group =>   2
Atom   7C    basis set group =>   2
Atom   8C    basis set group =>   2
Atom   9C    basis set group =>   2
Atom  10C    basis set group =>   2
Atom  11C    basis set group =>   2
Atom  12C    basis set group =>   2
Atom  13C    basis set group =>   2
Atom  14C    basis set group =>   2
Atom  15C    basis set group =>   2
Atom  16C    basis set group =>   2
Atom  17C    basis set group =>   2
Atom  18C    basis set group =>   2
Atom  19C    basis set group =>   2
Atom  20C    basis set group =>   2
Atom  21H    basis set group =>   3
Atom  22H    basis set group =>   3
Atom  23H    basis set group =>   3
Atom  24H    basis set group =>   3
Atom  25H    basis set group =>   3
Atom  26H    basis set group =>   3
Atom  27H    basis set group =>   3
Atom  28H    basis set group =>   3
Atom  29H    basis set group =>   3
Atom  30H    basis set group =>   3
Atom  31H    basis set group =>   3
Atom  32H    basis set group =>   3
Atom  33H    basis set group =>   3
Atom  34H    basis set group =>   3
---------------------------------
AUXILIARY/J BASIS SET INFORMATION
---------------------------------
There are 3 groups of distinct atoms

 Group   1 Type O   : 12s5p4d2f1g contracted to 6s4p3d1f1g pattern {711111/2111/211/2/1}
 Group   2 Type C   : 12s5p4d2f1g contracted to 6s4p3d1f1g pattern {711111/2111/211/2/1}
 Group   3 Type H   : 5s2p1d contracted to 3s1p1d pattern {311/2/1}

Atom   0O    basis set group =>   1
Atom   1O    basis set group =>   1
Atom   2O    basis set group =>   1
Atom   3O    basis set group =>   1
Atom   4O    basis set group =>   1
Atom   5O    basis set group =>   1
Atom   6C    basis set group =>   2
Atom   7C    basis set group =>   2
Atom   8C    basis set group =>   2
Atom   9C    basis set group =>   2
Atom  10C    basis set group =>   2
Atom  11C    basis set group =>   2
Atom  12C    basis set group =>   2
Atom  13C    basis set group =>   2
Atom  14C    basis set group =>   2
Atom  15C    basis set group =>   2
Atom  16C    basis set group =>   2
Atom  17C    basis set group =>   2
Atom  18C    basis set group =>   2
Atom  19C    basis set group =>   2
Atom  20C    basis set group =>   2
Atom  21H    basis set group =>   3
Atom  22H    basis set group =>   3
Atom  23H    basis set group =>   3
Atom  24H    basis set group =>   3
Atom  25H    basis set group =>   3
Atom  26H    basis set group =>   3
Atom  27H    basis set group =>   3
Atom  28H    basis set group =>   3
Atom  29H    basis set group =>   3
Atom  30H    basis set group =>   3
Atom  31H    basis set group =>   3
Atom  32H    basis set group =>   3
Atom  33H    basis set group =>   3
Atom  34H    basis set group =>   3
------------------------------------------------------------------------------
                             ORCA STARTUP CALCULATIONS
                           -- RI-GTO INTEGRALS CHOSEN --
------------------------------------------------------------------------------
------------------------------------------------------------------------------
                   ___                                                        
                  /   \      - P O W E R E D   B Y -                         
                 /     \                                                     
                 |  |  |   _    _      __       _____    __    __             
                 |  |  |  | |  | |    /  \     |  _  \  |  |  /  |          
                  \  \/   | |  | |   /    \    | | | |  |  | /  /          
                 / \  \   | |__| |  /  /\  \   | |_| |  |  |/  /          
                |  |  |   |  __  | /  /__\  \  |    /   |      \           
                |  |  |   | |  | | |   __   |  |    \   |  |\   \          
                \     /   | |  | | |  |  |  |  | |\  \  |  | \   \       
                 \___/    |_|  |_| |__|  |__|  |_| \__\ |__|  \__/        
                                                                              
                      - O R C A' S   B I G   F R I E N D -                    
                                      &                                       
                       - I N T E G R A L  F E E D E R -                       
                                                                              
 v1 FN, 2020, v2 2021, v3 2022-2024                                           
------------------------------------------------------------------------------


----------------------
SHARK INTEGRAL PACKAGE
----------------------

Number of atoms                             ...     35
Number of basis functions                   ...    322
Number of shells                            ...    154
Maximum angular momentum                    ...      2
Integral batch strategy                     ... SHARK/LIBINT Hybrid
RI-J (if used) integral strategy            ... SPLIT-RIJ (Revised 2003 algorithm where possible)
Printlevel                                  ...      1
Contraction scheme used                     ... SEGMENTED contraction
Prescreening option                         ... SCHWARTZ
   Thresh                                   ... 2.500e-11
   Tcut                                     ... 2.500e-12
   Tpresel                                  ... 2.500e-12 
Coulomb Range Separation                    ... NOT USED
Exchange Range Separation                   ... NOT USED
Multipole approximations                    ... NOT USED
Finite Nucleus Model                        ... NOT USED
CABS basis                                  ... NOT available
Auxiliary Coulomb fitting basis             ... AVAILABLE
   # of basis functions in Aux-J            ...   1183
   # of shells in Aux-J                     ...    385
   Maximum angular momentum in Aux-J        ...      4
Auxiliary J/K fitting basis                 ... NOT available
Auxiliary Correlation fitting basis         ... NOT available
Auxiliary 'external' fitting basis          ... NOT available

Checking pre-screening integrals            ... done (  0.0 sec) Dimension = 154
   => SHARK Basis and OBASIS are compatible. Storing Pre-screening
Shell pair information
Shell pair cut-off parameter TPreSel        ...   2.5e-12
Total number of shell pairs                 ...     11935
Shell pairs after pre-screening             ...      8453
Total number of primitive shell pairs       ...     69489
Primitive shell pairs kept                  ...     27595
          la=0 lb=0:   2815 shell pairs
          la=1 lb=0:   2887 shell pairs
          la=1 lb=1:    743 shell pairs
          la=2 lb=0:   1216 shell pairs
          la=2 lb=1:    651 shell pairs
          la=2 lb=2:    141 shell pairs

Checking whether 4 symmetric matrices of dimension 322 fit in memory
:Max Core in MB      =   4096.00
 MB in use           =     15.95
 MB left             =   4080.05
 MB needed           =      1.59
 Data fit in memory  = YES
Calculating RI/J V-Matrix + Cholesky decomp.... done (  0.3 sec)
Calculating Nuclear repulsion               ... done (  0.0 sec) ENN=   1638.781947029817 Eh

Diagonalization of the overlap matrix:
Smallest eigenvalue                        ... 3.961e-04
Time for diagonalization                   ...    0.010 sec
Threshold for overlap eigenvalues          ... 1.000e-07
Number of eigenvalues below threshold      ... 0
Time for construction of square roots      ...    0.020 sec
Total time needed                          ...    0.048 sec

-------------------
DFT GRID GENERATION
-------------------

General Integration Accuracy     IntAcc      ... 4.388
Radial Grid Type                 RadialGrid  ... OptM3 with GC (2021)
Angular Grid (max. ang.)         AngularGrid ... 4 (Lebedev-302)
Angular grid pruning method      GridPruning ... 4 (adaptive)
Weight generation scheme         WeightScheme... mBecke (2022)
Basis function cutoff            BFCut       ... 1.0000e-11
Integration weight cutoff        WCut        ... 1.0000e-14
Partially contracted basis set               ... off
Rotationally invariant grid construction     ... off
Angular grids for H and He will be reduced by one unit

Total number of grid points                  ...   170400
Total number of batches                      ...     2680
Average number of points per batch           ...       63
Average number of grid points per atom       ...     4869

--------------------
COSX GRID GENERATION
--------------------

GRIDX 1
-------
General Integration Accuracy     IntAcc      ... 3.816
Radial Grid Type                 RadialGrid  ... OptM3 with GC (2021)
Angular Grid (max. ang.)         AngularGrid ... 1 (Lebedev-50)
Angular grid pruning method      GridPruning ... 4 (adaptive)
Weight generation scheme         WeightScheme... mBecke (2022)
Basis function cutoff            BFCut       ... 1.0000e-11
Integration weight cutoff        WCut        ... 1.0000e-14
Partially contracted basis set               ... on
Rotationally invariant grid construction     ... off
Angular grids for H and He will be reduced by one unit

Total number of grid points                  ...    21682
Total number of batches                      ...      190
Average number of points per batch           ...      114
Average number of grid points per atom       ...      619
UseSFitting                                  ... on

GRIDX 2
-------
General Integration Accuracy     IntAcc      ... 4.020
Radial Grid Type                 RadialGrid  ... OptM3 with GC (2021)
Angular Grid (max. ang.)         AngularGrid ... 2 (Lebedev-110)
Angular grid pruning method      GridPruning ... 4 (adaptive)
Weight generation scheme         WeightScheme... mBecke (2022)
Basis function cutoff            BFCut       ... 1.0000e-11
Integration weight cutoff        WCut        ... 1.0000e-14
Partially contracted basis set               ... on
Rotationally invariant grid construction     ... off
Angular grids for H and He will be reduced by one unit

Total number of grid points                  ...    47499
Total number of batches                      ...      388
Average number of points per batch           ...      122
Average number of grid points per atom       ...     1357
UseSFitting                                  ... on

GRIDX 3
-------
General Integration Accuracy     IntAcc      ... 4.338
Radial Grid Type                 RadialGrid  ... OptM3 with GC (2021)
Angular Grid (max. ang.)         AngularGrid ... 3 (Lebedev-194)
Angular grid pruning method      GridPruning ... 4 (adaptive)
Weight generation scheme         WeightScheme... mBecke (2022)
Basis function cutoff            BFCut       ... 1.0000e-11
Integration weight cutoff        WCut        ... 1.0000e-14
Partially contracted basis set               ... on
Rotationally invariant grid construction     ... off
Angular grids for H and He will be reduced by one unit

Total number of grid points                  ...   104059
Total number of batches                      ...      830
Average number of points per batch           ...      125
Average number of grid points per atom       ...     2973
UseSFitting                                  ... on
Grids setup in   5.6 sec
Initializing property integral containers    ... done (  0.0 sec)

SHARK setup successfully completed in   6.6 seconds

Maximum memory used throughout the entire STARTUP-calculation: 72.8 MB
-------------------------------------------------------------------------------
                                 ORCA GUESS
                   Start orbitals & Density for SCF / CASSCF
-------------------------------------------------------------------------------

------------
SCF SETTINGS
------------
Hamiltonian:
 Density Functional     Method          .... DFT(GTOs)
 Exchange Functional    Exchange        .... B88
   X-Alpha parameter    XAlpha          ....  0.666667
   Becke's b parameter  XBeta           ....  0.004200
 Correlation Functional Correlation     .... LYP
 LDA part of GGA corr.  LDAOpt          .... VWN-5
 Gradients option       PostSCFGGA      .... off
 Hybrid DFT is turned on
   Fraction HF Exchange ScalHFX         ....  0.200000
   Scaling of DF-GGA-X  ScalDFX         ....  0.720000
   Scaling of DF-GGA-C  ScalDFC         ....  0.810000
   Scaling of DF-LDA-C  ScalLDAC        ....  1.000000
   Perturbative correction              ....  0.000000
   NL short-range parameter             ....  4.800000
 RI-approximation to the Coulomb term is turned on
   Number of AuxJ basis functions       .... 1183
   RIJ-COSX (HFX calculated with COS-X)).... on


General Settings:
 Integral files         IntName         .... Catechin
 Hartree-Fock type      HFTyp           .... RHF
 Total Charge           Charge          ....    0
 Multiplicity           Mult            ....    1
 Number of Electrons    NEL             ....  152
 Basis Dimension        Dim             ....  322
 Nuclear Repulsion      ENuc            ....   1638.7819470298 Eh

Convergence Acceleration:
 AO-DIIS                CNVDIIS         .... on
   Start iteration      DIISMaxIt       ....    12
   Startup error        DIISStart       ....  0.200000
   # of expansion vecs  DIISMaxEq       ....     5
   Bias factor          DIISBfac        ....   1.050
   Max. coefficient     DIISMaxC        ....  10.000
 MO-DIIS                CNVKDIIS        .... off
 Trust-Rad. Augm. Hess. CNVTRAH         .... auto
   Auto Start mean grad. ratio tolernc. ....  1.125000
   Auto Start start iteration           ....     1
   Auto Start num. interpolation iter.  ....    10
   Max. Number of Micro iterations      ....    24
   Max. Number of Macro iterations      .... Maxiter - #DIIS iter
   Number of Davidson start vectors     ....     2
   Converg. threshold    (grad. norm)   ....   1.000e-05
   Grad. Scal. Fac. for Micro threshold ....   0.100
   Minimum threshold for Micro iter.    ....   1.000e-02
   NR start threshold (gradient norm)   ....   1.000e-04
   Initial trust radius                 ....   0.400
   Minimum AH scaling param. (alpha)    ....   1.000
   Maximum AH scaling param. (alpha)    .... 1000.000
   Quad. conv. algorithm                .... NR
   White noise on init. David. guess    .... on
   Maximum white noise                  ....   0.010
   Pseudo random numbers                .... off
   Inactive MOs                         .... canonical
   Orbital update algorithm             .... Taylor
   Preconditioner                       .... Diag
   Full preconditioner red. dimension   ....   250
 SOSCF                 CNVSOSCF           .... on
   Start iteration     SOSCFMaxIt         ....   150
   Startup grad/error  SOSCFStart         ....  0.003300
   Hessian update      SOSCFHessUp        .... L-BFGS
   Autom. constraints  SOSCFAutoConstrain .... off
 Level Shifting         CNVShift        .... on
   Level shift para.    LevelShift      ....    0.2500
   Turn off err/grad.   ShiftErr        ....    0.0010
 Zerner damping         CNVZerner       .... off
 Static damping         CNVDamp         .... on
   Fraction old density DampFac         ....    0.7000
   Max. Damping (<1)    DampMax         ....    0.9800
   Min. Damping (>=0)   DampMin         ....    0.0000
   Turn off err/grad.   DampErr         ....    0.1000

SCF Procedure:
 Maximum # iterations   MaxIter         ....   125
 SCF integral mode      SCFMode         .... Direct
   Integral package                     .... SHARK and LIBINT hybrid scheme
 Reset frequency        DirectResetFreq ....    20
 Integral Threshold     Thresh          ....  2.500e-11 Eh
 Primitive CutOff       TCut            ....  2.500e-12 Eh

Convergence Tolerance:
 Convergence Check Mode ConvCheckMode   .... Total+1el-Energy
 Convergence forced     ConvForced      .... 0
 Energy Change          TolE            ....  1.000e-08 Eh
 1-El. energy change                    ....  1.000e-05 Eh
 Orbital Gradient       TolG            ....  1.000e-05
 Orbital Rotation angle TolX            ....  1.000e-05
 DIIS Error             TolErr          ....  5.000e-07

---------------------
INITIAL GUESS: MOREAD
---------------------
Guess MOs are being read from file: Catechin.gbw
Input Geometry matches current geometry (good)
Input basis set matches current basis set (good)
Occupation numbers will be reassigned to an Aufbau configuration
MOs were renormalized
MOs were reorthogonalized (Cholesky)
                      ------------------
                      INITIAL GUESS DONE (   0.2 sec)
                      ------------------
             **** ENERGY FILE WAS UPDATED (Catechin.en.tmp) ****
Finished Guess after   0.6 sec
Maximum memory used throughout the entire GUESS-calculation: 26.1 MB

-------------------------------------------------------------------------------------------
                                      ORCA LEAN-SCF
                              memory conserving SCF solver
-------------------------------------------------------------------------------------------

----------------------------------------D-I-I-S--------------------------------------------
Iteration    Energy (Eh)           Delta-E    RMSDP     MaxDP     DIISErr   Damp  Time(sec)
-------------------------------------------------------------------------------------------
               ***  Starting incremental Fock matrix formation  ***
                              *** Initializing SOSCF ***
---------------------------------------S-O-S-C-F--------------------------------------
Iteration    Energy (Eh)           Delta-E    RMSDP     MaxDP     MaxGrad    Time(sec)
--------------------------------------------------------------------------------------
    1    -1030.7417092184780358     0.00e+00  1.11e-05  6.93e-04  5.15e-05    18.2
               *** Restarting incremental Fock matrix formation ***
    2    -1030.7417114314300761    -2.21e-06  5.72e-06  2.80e-04  6.98e-05    18.2
    3    -1030.7417116704893942    -2.39e-07  1.93e-06  8.16e-05  9.56e-06    10.2
    4    -1030.7417116687049656     1.78e-09  9.67e-07  4.51e-05  1.58e-05     9.0
                 **** Energy Check signals convergence ****

               *****************************************************
               *                     SUCCESS                       *
               *           SCF CONVERGED AFTER   4 CYCLES          *
               *****************************************************

Recomputing exchange energy using gridx3       ... done (   28.001 sec)
Old exchange energy                            :    -26.463984311 Eh
New exchange energy                            :    -26.463990100 Eh
Exchange energy change after final integration :     -0.000005789 Eh
Total energy after final integration           :  -1030.741717470 Eh
             **** ENERGY FILE WAS UPDATED (Catechin.en.tmp) ****

----------------
TOTAL SCF ENERGY
----------------

Total Energy       :      -1030.74171746969500 Eh          -28047.90806 eV

Components:
Nuclear Repulsion  :       1638.78194702981659 Eh           44593.52387 eV
Electronic Energy  :      -2669.52365871059101 Eh          -72641.43177 eV
One Electron Energy:      -4664.57124994937749 Eh         -126929.43668 eV
Two Electron Energy:       1995.04759123878625 Eh           54288.00491 eV

Virial components:
Potential Energy   :      -2055.64077337125900 Eh          -55936.82922 eV
Kinetic Energy     :       1024.89905590156400 Eh           27888.92116 eV
Virial Ratio       :          2.00570071904593

DFT components:
N(Alpha)           :       75.999981107179 electrons
N(Beta)            :       75.999981107179 electrons
N(Total)           :      151.999962214358 electrons
E(X)               :     -105.196460550823 Eh       
E(C)               :       -6.208117427845 Eh       
E(XC)              :     -111.404577978667 Eh       

---------------
SCF CONVERGENCE
---------------

  Last Energy change         ...   -1.7844e-09  Tolerance :   1.0000e-08
  Last MAX-Density change    ...    4.5086e-05  Tolerance :   1.0000e-07
  Last RMS-Density change    ...    9.6724e-07  Tolerance :   5.0000e-09
  Last DIIS Error            ...    5.8632e-04  Tolerance :   5.0000e-07
  Last Orbital Gradient      ...    1.5778e-05  Tolerance :   1.0000e-05
  Last Orbital Rotation      ...    1.7329e-05  Tolerance :   1.0000e-05


----------------
ORBITAL ENERGIES
----------------

  NO   OCC          E(Eh)            E(eV) 
   0   2.0000     -19.172453      -521.7090 
   1   2.0000     -19.169332      -521.6240 
   2   2.0000     -19.166289      -521.5412 
   3   2.0000     -19.161880      -521.4213 
   4   2.0000     -19.160541      -521.3848 
   5   2.0000     -19.139068      -520.8005 
   6   2.0000     -10.243956      -278.7522 
   7   2.0000     -10.243946      -278.7520 
   8   2.0000     -10.240255      -278.6515 
   9   2.0000     -10.236727      -278.5555 
  10   2.0000     -10.233119      -278.4573 
  11   2.0000     -10.232532      -278.4413 
  12   2.0000     -10.230171      -278.3771 
  13   2.0000     -10.178328      -276.9664 
  14   2.0000     -10.177590      -276.9463 
  15   2.0000     -10.175411      -276.8870 
  16   2.0000     -10.174741      -276.8688 
  17   2.0000     -10.172292      -276.8022 
  18   2.0000     -10.169485      -276.7258 
  19   2.0000     -10.168668      -276.7035 
  20   2.0000     -10.167484      -276.6713 
  21   2.0000      -1.060367       -28.8540 
  22   2.0000      -1.057450       -28.7747 
  23   2.0000      -1.056870       -28.7589 
  24   2.0000      -1.054999       -28.7080 
  25   2.0000      -1.037229       -28.2244 
  26   2.0000      -1.019301       -27.7366 
  27   2.0000      -0.846973       -23.0473 
  28   2.0000      -0.837286       -22.7837 
  29   2.0000      -0.791367       -21.5342 
  30   2.0000      -0.765773       -20.8377 
  31   2.0000      -0.731339       -19.9007 
  32   2.0000      -0.728845       -19.8329 
  33   2.0000      -0.715961       -19.4823 
  34   2.0000      -0.669101       -18.2072 
  35   2.0000      -0.633401       -17.2357 
  36   2.0000      -0.627231       -17.0678 
  37   2.0000      -0.615058       -16.7366 
  38   2.0000      -0.589204       -16.0331 
  39   2.0000      -0.581144       -15.8137 
  40   2.0000      -0.551715       -15.0129 
  41   2.0000      -0.535549       -14.5730 
  42   2.0000      -0.529138       -14.3986 
  43   2.0000      -0.513253       -13.9663 
  44   2.0000      -0.496872       -13.5206 
  45   2.0000      -0.492210       -13.3937 
  46   2.0000      -0.480352       -13.0710 
  47   2.0000      -0.477454       -12.9922 
  48   2.0000      -0.456287       -12.4162 
  49   2.0000      -0.447205       -12.1691 
  50   2.0000      -0.436107       -11.8671 
  51   2.0000      -0.427970       -11.6457 
  52   2.0000      -0.422912       -11.5080 
  53   2.0000      -0.416055       -11.3214 
  54   2.0000      -0.411607       -11.2004 
  55   2.0000      -0.404791       -11.0149 
  56   2.0000      -0.398692       -10.8489 
  57   2.0000      -0.390247       -10.6192 
  58   2.0000      -0.388035       -10.5590 
  59   2.0000      -0.374965       -10.2033 
  60   2.0000      -0.370019       -10.0687 
  61   2.0000      -0.365917        -9.9571 
  62   2.0000      -0.356334        -9.6963 
  63   2.0000      -0.353573        -9.6212 
  64   2.0000      -0.351995        -9.5783 
  65   2.0000      -0.341421        -9.2905 
  66   2.0000      -0.335656        -9.1337 
  67   2.0000      -0.333603        -9.0778 
  68   2.0000      -0.313887        -8.5413 
  69   2.0000      -0.300684        -8.1820 
  70   2.0000      -0.274171        -7.4606 
  71   2.0000      -0.268238        -7.2991 
  72   2.0000      -0.227457        -6.1894 
  73   2.0000      -0.210956        -5.7404 
  74   2.0000      -0.205906        -5.6030 
  75   2.0000      -0.194996        -5.3061 
  76   0.0000       0.012643         0.3440 
  77   0.0000       0.019298         0.5251 
  78   0.0000       0.022721         0.6183 
  79   0.0000       0.027596         0.7509 
  80   0.0000       0.069257         1.8846 
  81   0.0000       0.071727         1.9518 
  82   0.0000       0.073541         2.0012 
  83   0.0000       0.076443         2.0801 
  84   0.0000       0.084112         2.2888 
  85   0.0000       0.107951         2.9375 
  86   0.0000       0.111235         3.0269 
*Only the first 10 virtual orbitals were printed.

                    ********************************
                    * MULLIKEN POPULATION ANALYSIS *
                    ********************************

-----------------------
MULLIKEN ATOMIC CHARGES
-----------------------
   0 O :   -0.531442
   1 O :   -0.642566
   2 O :   -0.641043
   3 O :   -0.643908
   4 O :   -0.629368
   5 O :   -0.626593
   6 C :    0.145227
   7 C :    0.059761
   8 C :   -0.354544
   9 C :    0.034435
  10 C :    0.328890
  11 C :    0.128209
  12 C :    0.302750
  13 C :   -0.293478
  14 C :   -0.257846
  15 C :   -0.162842
  16 C :   -0.261784
  17 C :    0.372893
  18 C :    0.321424
  19 C :   -0.214670
  20 C :    0.319315
  21 H :    0.124665
  22 H :    0.140765
  23 H :    0.160530
  24 H :    0.151870
  25 H :    0.123772
  26 H :    0.128899
  27 H :    0.401248
  28 H :    0.128456
  29 H :    0.123571
  30 H :    0.116133
  31 H :    0.414608
  32 H :    0.413410
  33 H :    0.409758
  34 H :    0.409494
Sum of atomic charges:   -0.0000000

--------------------------------
MULLIKEN REDUCED ORBITAL CHARGES
--------------------------------
  0 O s       :     3.894269  s :     3.894269
      pz      :     1.755275  p :     4.607790
      px      :     1.298130
      py      :     1.554384
      dz2     :     0.004232  d :     0.029383
      dxz     :     0.005049
      dyz     :     0.003743
      dx2y2   :     0.008905
      dxy     :     0.007454

  1 O s       :     3.891538  s :     3.891538
      pz      :     1.753169  p :     4.724083
      px      :     1.718573
      py      :     1.252340
      dz2     :     0.002625  d :     0.026946
      dxz     :     0.004851
      dyz     :     0.007902
      dx2y2   :     0.004186
      dxy     :     0.007381

  2 O s       :     3.891039  s :     3.891039
      pz      :     1.849305  p :     4.721342
      px      :     1.342557
      py      :     1.529479
      dz2     :     0.004397  d :     0.028661
      dxz     :     0.001411
      dyz     :     0.004897
      dx2y2   :     0.013015
      dxy     :     0.004941

  3 O s       :     3.890310  s :     3.890310
      pz      :     1.856527  p :     4.724711
      px      :     1.619242
      py      :     1.248942
      dz2     :     0.004671  d :     0.028887
      dxz     :     0.003787
      dyz     :     0.002330
      dx2y2   :     0.003525
      dxy     :     0.014575

  4 O s       :     3.894561  s :     3.894561
      pz      :     1.470851  p :     4.705562
      px      :     1.576836
      py      :     1.657875
      dz2     :     0.003358  d :     0.029246
      dxz     :     0.010279
      dyz     :     0.003395
      dx2y2   :     0.006243
      dxy     :     0.005970

  5 O s       :     3.894522  s :     3.894522
      pz      :     1.650221  p :     4.702786
      px      :     1.292677
      py      :     1.759888
      dz2     :     0.004017  d :     0.029284
      dxz     :     0.008701
      dyz     :     0.006052
      dx2y2   :     0.003807
      dxy     :     0.006708

  6 C s       :     3.132619  s :     3.132619
      pz      :     0.984570  p :     2.652750
      px      :     0.866894
      py      :     0.801286
      dz2     :     0.016916  d :     0.069404
      dxz     :     0.007519
      dyz     :     0.013307
      dx2y2   :     0.015314
      dxy     :     0.016348

  7 C s       :     3.162693  s :     3.162693
      pz      :     0.997210  p :     2.709775
      px      :     0.927798
      py      :     0.784767
      dz2     :     0.016170  d :     0.067771
      dxz     :     0.007688
      dyz     :     0.012884
      dx2y2   :     0.013937
      dxy     :     0.017092

  8 C s       :     3.253709  s :     3.253709
      pz      :     1.069691  p :     3.060549
      px      :     0.953734
      py      :     1.037123
      dz2     :     0.007773  d :     0.040286
      dxz     :     0.004927
      dyz     :     0.011776
      dx2y2   :     0.007727
      dxy     :     0.008082

  9 C s       :     3.100572  s :     3.100572
      pz      :     1.115971  p :     2.827961
      px      :     0.882733
      py      :     0.829257
      dz2     :     0.003291  d :     0.037032
      dxz     :     0.005085
      dyz     :     0.005995
      dx2y2   :     0.012331
      dxy     :     0.010330

 10 C s       :     3.090438  s :     3.090438
      pz      :     0.952161  p :     2.508741
      px      :     0.677902
      py      :     0.878678
      dz2     :     0.005040  d :     0.071931
      dxz     :     0.015115
      dyz     :     0.009325
      dx2y2   :     0.022948
      dxy     :     0.019503

 11 C s       :     3.124237  s :     3.124237
      pz      :     0.896963  p :     2.707974
      px      :     0.868193
      py      :     0.942818
      dz2     :     0.009219  d :     0.039580
      dxz     :     0.009617
      dyz     :     0.005682
      dx2y2   :     0.008352
      dxy     :     0.006709

 12 C s       :     3.091482  s :     3.091482
      pz      :     0.951175  p :     2.534253
      px      :     0.881067
      py      :     0.702011
      dz2     :     0.005072  d :     0.071515
      dxz     :     0.009612
      dyz     :     0.014627
      dx2y2   :     0.021518
      dxy     :     0.020685

 13 C s       :     3.167424  s :     3.167424
      pz      :     1.160956  p :     3.093988
      px      :     0.947149
      py      :     0.985883
      dz2     :     0.003702  d :     0.032066
      dxz     :     0.004859
      dyz     :     0.002938
      dx2y2   :     0.009609
      dxy     :     0.010958

 14 C s       :     3.186014  s :     3.186014
      pz      :     1.039281  p :     3.036884
      px      :     0.930081
      py      :     1.067523
      dz2     :     0.005770  d :     0.034948
      dxz     :     0.010152
      dyz     :     0.004881
      dx2y2   :     0.006669
      dxy     :     0.007476

 15 C s       :     3.187866  s :     3.187866
      pz      :     0.999444  p :     2.938266
      px      :     0.946877
      py      :     0.991945
      dz2     :     0.005760  d :     0.036710
      dxz     :     0.009553
      dyz     :     0.006339
      dx2y2   :     0.006832
      dxy     :     0.008226

 16 C s       :     3.161505  s :     3.161505
      pz      :     1.162437  p :     3.068336
      px      :     0.916961
      py      :     0.988938
      dz2     :     0.003563  d :     0.031943
      dxz     :     0.002379
      dyz     :     0.005521
      dx2y2   :     0.011384
      dxy     :     0.009096

 17 C s       :     3.069524  s :     3.069524
      pz      :     0.936135  p :     2.485353
      px      :     0.815160
      py      :     0.734057
      dz2     :     0.005104  d :     0.072230
      dxz     :     0.011220
      dyz     :     0.013552
      dx2y2   :     0.018650
      dxy     :     0.023703

 18 C s       :     3.056131  s :     3.056131
      pz      :     0.788562  p :     2.553802
      px      :     0.888882
      py      :     0.876358
      dz2     :     0.015438  d :     0.068643
      dxz     :     0.017365
      dyz     :     0.011233
      dx2y2   :     0.011639
      dxy     :     0.012969

 19 C s       :     3.174856  s :     3.174856
      pz      :     0.975082  p :     3.004670
      px      :     1.001627
      py      :     1.027961
      dz2     :     0.005511  d :     0.035144
      dxz     :     0.010998
      dyz     :     0.004895
      dx2y2   :     0.006567
      dxy     :     0.007173

 20 C s       :     3.051189  s :     3.051189
      pz      :     0.943376  p :     2.560890
      px      :     0.655685
      py      :     0.961829
      dz2     :     0.011210  d :     0.068606
      dxz     :     0.019098
      dyz     :     0.005657
      dx2y2   :     0.014765
      dxy     :     0.017876

 21 H s       :     0.875335  s :     0.875335

 22 H s       :     0.859235  s :     0.859235

 23 H s       :     0.839470  s :     0.839470

 24 H s       :     0.848130  s :     0.848130

 25 H s       :     0.876228  s :     0.876228

 26 H s       :     0.871101  s :     0.871101

 27 H s       :     0.598752  s :     0.598752

 28 H s       :     0.871544  s :     0.871544

 29 H s       :     0.876429  s :     0.876429

 30 H s       :     0.883867  s :     0.883867

 31 H s       :     0.585392  s :     0.585392

 32 H s       :     0.586590  s :     0.586590

 33 H s       :     0.590242  s :     0.590242

 34 H s       :     0.590506  s :     0.590506



                     *******************************
                     * LOEWDIN POPULATION ANALYSIS *
                     *******************************

----------------------
LOEWDIN ATOMIC CHARGES
----------------------
   0 O :   -0.157984
   1 O :   -0.396353
   2 O :   -0.318036
   3 O :   -0.317611
   4 O :   -0.312602
   5 O :   -0.311170
   6 C :   -0.021594
   7 C :    0.013189
   8 C :   -0.236443
   9 C :   -0.108639
  10 C :    0.088569
  11 C :   -0.033851
  12 C :    0.084515
  13 C :   -0.231689
  14 C :   -0.172244
  15 C :   -0.132828
  16 C :   -0.231304
  17 C :    0.084295
  18 C :    0.048821
  19 C :   -0.176297
  20 C :    0.048867
  21 H :    0.110398
  22 H :    0.125162
  23 H :    0.135003
  24 H :    0.133750
  25 H :    0.135575
  26 H :    0.133559
  27 H :    0.315411
  28 H :    0.134224
  29 H :    0.135595
  30 H :    0.127068
  31 H :    0.327475
  32 H :    0.326718
  33 H :    0.325185
  34 H :    0.325266

-------------------------------
LOEWDIN REDUCED ORBITAL CHARGES
-------------------------------
  0 O s       :     3.460656  s :     3.460656
      pz      :     1.748078  p :     4.630911
      px      :     1.315687
      py      :     1.567146
      dz2     :     0.008308  d :     0.066417
      dxz     :     0.011856
      dyz     :     0.006777
      dx2y2   :     0.021222
      dxy     :     0.018255

  1 O s       :     3.560483  s :     3.560483
      pz      :     1.773612  p :     4.786243
      px      :     1.724403
      py      :     1.288228
      dz2     :     0.004666  d :     0.049627
      dxz     :     0.006360
      dyz     :     0.014395
      dx2y2   :     0.009720
      dxy     :     0.014486

  2 O s       :     3.526355  s :     3.526355
      pz      :     1.834884  p :     4.738958
      px      :     1.356909
      py      :     1.547166
      dz2     :     0.006740  d :     0.052723
      dxz     :     0.002876
      dyz     :     0.008040
      dx2y2   :     0.024348
      dxy     :     0.010718

  3 O s       :     3.526677  s :     3.526677
      pz      :     1.840830  p :     4.738172
      px      :     1.624459
      py      :     1.272882
      dz2     :     0.007072  d :     0.052762
      dxz     :     0.004655
      dyz     :     0.005778
      dx2y2   :     0.008412
      dxy     :     0.026846

  4 O s       :     3.527956  s :     3.527956
      pz      :     1.483982  p :     4.730651
      px      :     1.587799
      py      :     1.658869
      dz2     :     0.007935  d :     0.053995
      dxz     :     0.018224
      dyz     :     0.008629
      dx2y2   :     0.009259
      dxy     :     0.009949

  5 O s       :     3.527667  s :     3.527667
      pz      :     1.653152  p :     4.729406
      px      :     1.320866
      py      :     1.755388
      dz2     :     0.006579  d :     0.054097
      dxz     :     0.017108
      dyz     :     0.007371
      dx2y2   :     0.009358
      dxy     :     0.013682

  6 C s       :     2.897224  s :     2.897224
      pz      :     1.070135  p :     2.968144
      px      :     0.980780
      py      :     0.917229
      dz2     :     0.035123  d :     0.156225
      dxz     :     0.015616
      dyz     :     0.031575
      dx2y2   :     0.037128
      dxy     :     0.036784

  7 C s       :     2.896342  s :     2.896342
      pz      :     1.067720  p :     2.941519
      px      :     0.972348
      py      :     0.901451
      dz2     :     0.033662  d :     0.148949
      dxz     :     0.015289
      dyz     :     0.030051
      dx2y2   :     0.033256
      dxy     :     0.036691

  8 C s       :     2.930803  s :     2.930803
      pz      :     1.117280  p :     3.219666
      px      :     1.035016
      py      :     1.067369
      dz2     :     0.015457  d :     0.085974
      dxz     :     0.009696
      dyz     :     0.023358
      dx2y2   :     0.018560
      dxy     :     0.018904

  9 C s       :     2.864089  s :     2.864089
      pz      :     1.098841  p :     3.149374
      px      :     1.024897
      py      :     1.025637
      dz2     :     0.007156  d :     0.095175
      dxz     :     0.010646
      dyz     :     0.011558
      dx2y2   :     0.034859
      dxy     :     0.030956

 10 C s       :     2.847871  s :     2.847871
      pz      :     0.950913  p :     2.891845
      px      :     0.866501
      py      :     1.074432
      dz2     :     0.011307  d :     0.171715
      dxz     :     0.031505
      dyz     :     0.020078
      dx2y2   :     0.056751
      dxy     :     0.052074

 11 C s       :     2.870709  s :     2.870709
      pz      :     1.037117  p :     3.062606
      px      :     1.013889
      py      :     1.011600
      dz2     :     0.022644  d :     0.100536
      dxz     :     0.025290
      dyz     :     0.014891
      dx2y2   :     0.020871
      dxy     :     0.016840

 12 C s       :     2.850256  s :     2.850256
      pz      :     0.947056  p :     2.895268
      px      :     1.031186
      py      :     0.917026
      dz2     :     0.011326  d :     0.169961
      dxz     :     0.020617
      dyz     :     0.031171
      dx2y2   :     0.054113
      dxy     :     0.052733

 13 C s       :     2.910962  s :     2.910962
      pz      :     1.141748  p :     3.242644
      px      :     1.041792
      py      :     1.059104
      dz2     :     0.007085  d :     0.078083
      dxz     :     0.010117
      dyz     :     0.005464
      dx2y2   :     0.026890
      dxy     :     0.028526

 14 C s       :     2.911946  s :     2.911946
      pz      :     1.066476  p :     3.177045
      px      :     1.045703
      py      :     1.064867
      dz2     :     0.013825  d :     0.083253
      dxz     :     0.024179
      dyz     :     0.010710
      dx2y2   :     0.016677
      dxy     :     0.017863

 15 C s       :     2.909372  s :     2.909372
      pz      :     1.052739  p :     3.137203
      px      :     1.055000
      py      :     1.029464
      dz2     :     0.013200  d :     0.086253
      dxz     :     0.023915
      dyz     :     0.011253
      dx2y2   :     0.018444
      dxy     :     0.019441

 16 C s       :     2.910186  s :     2.910186
      pz      :     1.143797  p :     3.243090
      px      :     1.060146
      py      :     1.039146
      dz2     :     0.006860  d :     0.078029
      dxz     :     0.003624
      dyz     :     0.011957
      dx2y2   :     0.029030
      dxy     :     0.026558

 17 C s       :     2.849030  s :     2.849030
      pz      :     0.937217  p :     2.895073
      px      :     1.026790
      py      :     0.931065
      dz2     :     0.011423  d :     0.171602
      dxz     :     0.024119
      dyz     :     0.028900
      dx2y2   :     0.048815
      dxy     :     0.058345

 18 C s       :     2.849333  s :     2.849333
      pz      :     0.926407  p :     2.936872
      px      :     1.060728
      py      :     0.949737
      dz2     :     0.035552  d :     0.164975
      dxz     :     0.042996
      dyz     :     0.027591
      dx2y2   :     0.027910
      dxy     :     0.030926

 19 C s       :     2.913844  s :     2.913844
      pz      :     1.049854  p :     3.178322
      px      :     1.074500
      py      :     1.053968
      dz2     :     0.013238  d :     0.084131
      dxz     :     0.026143
      dyz     :     0.010951
      dx2y2   :     0.016449
      dxy     :     0.017350

 20 C s       :     2.850045  s :     2.850045
      pz      :     1.044061  p :     2.936368
      px      :     0.878058
      py      :     1.014249
      dz2     :     0.026388  d :     0.164720
      dxz     :     0.047140
      dyz     :     0.013419
      dx2y2   :     0.036557
      dxy     :     0.041215

 21 H s       :     0.889602  s :     0.889602

 22 H s       :     0.874838  s :     0.874838

 23 H s       :     0.864997  s :     0.864997

 24 H s       :     0.866250  s :     0.866250

 25 H s       :     0.864425  s :     0.864425

 26 H s       :     0.866441  s :     0.866441

 27 H s       :     0.684589  s :     0.684589

 28 H s       :     0.865776  s :     0.865776

 29 H s       :     0.864405  s :     0.864405

 30 H s       :     0.872932  s :     0.872932

 31 H s       :     0.672525  s :     0.672525

 32 H s       :     0.673282  s :     0.673282

 33 H s       :     0.674815  s :     0.674815

 34 H s       :     0.674734  s :     0.674734



                      *****************************
                      * MAYER POPULATION ANALYSIS *
                      *****************************

  NA   - Mulliken gross atomic population
  ZA   - Total nuclear charge
  QA   - Mulliken gross atomic charge
  VA   - Mayer's total valence
  BVA  - Mayer's bonded valence
  FA   - Mayer's free valence

  ATOM       NA         ZA         QA         VA         BVA        FA
  0 O      8.5314     8.0000    -0.5314     1.9608     1.9608     0.0000
  1 O      8.6426     8.0000    -0.6426     1.7844     1.7844    -0.0000
  2 O      8.6410     8.0000    -0.6410     1.8796     1.8796    -0.0000
  3 O      8.6439     8.0000    -0.6439     1.8701     1.8701    -0.0000
  4 O      8.6294     8.0000    -0.6294     1.8740     1.8740    -0.0000
  5 O      8.6266     8.0000    -0.6266     1.8760     1.8760    -0.0000
  6 C      5.8548     6.0000     0.1452     3.7952     3.7952     0.0000
  7 C      5.9402     6.0000     0.0598     3.7961     3.7961    -0.0000
  8 C      6.3545     6.0000    -0.3545     3.8365     3.8365     0.0000
  9 C      5.9656     6.0000     0.0344     3.8334     3.8334    -0.0000
 10 C      5.6711     6.0000     0.3289     3.9031     3.9031    -0.0000
 11 C      5.8718     6.0000     0.1282     4.0016     4.0016    -0.0000
 12 C      5.6972     6.0000     0.3028     3.8680     3.8680    -0.0000
 13 C      6.2935     6.0000    -0.2935     3.8233     3.8233     0.0000
 14 C      6.2578     6.0000    -0.2578     3.8866     3.8866    -0.0000
 15 C      6.1628     6.0000    -0.1628     3.9432     3.9432    -0.0000
 16 C      6.2618     6.0000    -0.2618     3.8237     3.8237    -0.0000
 17 C      5.6271     6.0000     0.3729     3.8716     3.8716    -0.0000
 18 C      5.6786     6.0000     0.3214     3.8283     3.8283     0.0000
 19 C      6.2147     6.0000    -0.2147     3.9034     3.9034    -0.0000
 20 C      5.6807     6.0000     0.3193     3.8535     3.8535    -0.0000
 21 H      0.8753     1.0000     0.1247     0.9315     0.9315    -0.0000
 22 H      0.8592     1.0000     0.1408     0.9323     0.9323    -0.0000
 23 H      0.8395     1.0000     0.1605     0.9303     0.9303     0.0000
 24 H      0.8481     1.0000     0.1519     0.9341     0.9341    -0.0000
 25 H      0.8762     1.0000     0.1238     0.9455     0.9455     0.0000
 26 H      0.8711     1.0000     0.1289     0.9500     0.9500    -0.0000
 27 H      0.5988     1.0000     0.4012     0.8045     0.8045    -0.0000
 28 H      0.8715     1.0000     0.1285     0.9439     0.9439     0.0000
 29 H      0.8764     1.0000     0.1236     0.9445     0.9445    -0.0000
 30 H      0.8839     1.0000     0.1161     0.9417     0.9417    -0.0000
 31 H      0.5854     1.0000     0.4146     0.7993     0.7993    -0.0000
 32 H      0.5866     1.0000     0.4134     0.7995     0.7995    -0.0000
 33 H      0.5902     1.0000     0.4098     0.8031     0.8031    -0.0000
 34 H      0.5905     1.0000     0.4095     0.8027     0.8027     0.0000

  Mayer bond orders larger than 0.100000
B(  0-O ,  7-C ) :   0.8523 B(  0-O , 10-C ) :   0.9191 B(  1-O ,  6-C ) :   0.9186 
B(  1-O , 27-H ) :   0.7824 B(  2-O , 12-C ) :   0.9697 B(  2-O , 31-H ) :   0.7758 
B(  3-O , 17-C ) :   0.9462 B(  3-O , 32-H ) :   0.7781 B(  4-O , 18-C ) :   0.9698 
B(  4-O , 33-H ) :   0.7784 B(  5-O , 20-C ) :   0.9771 B(  5-O , 34-H ) :   0.7789 
B(  6-C ,  7-C ) :   0.9515 B(  6-C ,  8-C ) :   0.9772 B(  6-C , 21-H ) :   0.9142 
B(  7-C , 11-C ) :   0.9976 B(  7-C , 22-H ) :   0.9084 B(  8-C ,  9-C ) :   0.9678 
B(  8-C , 23-H ) :   0.9158 B(  8-C , 24-H ) :   0.9214 B(  9-C , 10-C ) :   1.3876 
B(  9-C , 12-C ) :   1.3478 B( 10-C , 13-C ) :   1.3643 B( 11-C , 14-C ) :   1.4021 
B( 11-C , 15-C ) :   1.4487 B( 12-C , 16-C ) :   1.3724 B( 13-C , 17-C ) :   1.3750 
B( 13-C , 25-H ) :   0.9109 B( 14-C , 18-C ) :   1.3907 B( 14-C , 26-H ) :   0.9073 
B( 15-C , 19-C ) :   1.4042 B( 15-C , 28-H ) :   0.9201 B( 16-C , 17-C ) :   1.3772 
B( 16-C , 29-H ) :   0.9137 B( 18-C , 20-C ) :   1.3294 B( 19-C , 20-C ) :   1.4127 
B( 19-C , 30-H ) :   0.9216 

-------
TIMINGS
-------

Total SCF time: 0 days 0 hours 1 min 34 sec 

Total time                  ....      94.838 sec
Sum of individual times     ....      85.178 sec  ( 89.8%)

SCF preparation             ....       1.263 sec  (  1.3%)
Fock matrix formation       ....      82.582 sec  ( 87.1%)
  Startup                   ....       0.099 sec  (  0.1% of F)
  Split-RI-J                ....       6.370 sec  (  7.7% of F)
  Chain of spheres X        ....      70.058 sec  ( 84.8% of F)
  XC integration            ....      13.705 sec  ( 16.6% of F)
    Basis function eval.    ....       2.380 sec  ( 17.4% of XC)
    Density eval.           ....       1.773 sec  ( 12.9% of XC)
    XC-Functional eval.     ....       0.320 sec  (  2.3% of XC)
    XC-Potential eval.      ....       1.595 sec  ( 11.6% of XC)
Diagonalization             ....       0.000 sec  (  0.0%)
Density matrix formation    ....       0.203 sec  (  0.2%)
Total Energy calculation    ....       0.082 sec  (  0.1%)
Population analysis         ....       0.482 sec  (  0.5%)
Orbital Transformation      ....       0.072 sec  (  0.1%)
Orbital Orthonormalization  ....       0.000 sec  (  0.0%)
DIIS solution               ....       0.098 sec  (  0.1%)
SOSCF solution              ....       0.395 sec  (  0.4%)
Finished LeanSCF after  95.1 sec

Maximum memory used throughout the entire LEANSCF-calculation: 50.6 MB

------------------------------------------------------------------------------
                         ORCA PROPERTY INTEGRAL CALCULATIONS
------------------------------------------------------------------------------

GBWName                                   ... Catechin.gbw
Number of atoms                           ...     35
Number of basis functions                 ...    322
Max core memory                           ...   4096 MB

Dipole integrals                          ... YES
Quadrupole integrals                      ...  NO
Linear momentum integrals                 ...  NO
Angular momentum integrals                ...  NO
Higher moments length integrals           ...  NO
Higher moments velocity integrals         ...  NO
Kinetic energy integrals                  ...  NO
GIAO right hand sides                     ...  NO
GIAO dipole derivative integrals          ...  NO
SOC integrals                             ...  NO
EPR diamagnetic integrals (GIAO)          ...  NO
EPR gauge integrals                       ...  NO
Field gradient integrals                  ...  NO (   0 nuclei)
Spin-dipole/Fermi contact integrals       ...  NO (   0 nuclei)
Contact density integrals                 ...  NO (   0 nuclei)
Nucleus-orbit integrals                   ...  NO (   0 nuclei)
Geometric perturbations                   ... YES (  35 nuclei)

Choice of electric origin   ... Center of mass
Position of electric origin ... ( -0.0084,  0.0195,  0.0593) 
Choice of magnetic origin   ... GIAO
Position of magnetic origin ... (  0.0000,  0.0000,  0.0000) 

Calculating integrals                     ... Electric Dipole (Length)     done (  0.1 sec)
Calculating integrals                     ... Geometrical perturbation right hand sides

-----------------------
GEOMETRIC PERTURBATIONS (35 nuclei)
-----------------------

MaxCore                            ...   4096 MB
Number of batches                  ...      1

BATCH   0: Atoms    0 -   34 (105 perturbations)
   => H(core) and overlap derivative integrals     ... done (     1.1 sec)
   => Making and storing internal U-coefficients   ... done (     2.2 sec)
   => RI-J derivative integrals                    ... done (    30.2 sec)
   => RI-J response operators                      ... done (     7.8 sec)
   => Chain of spheres derivative integrals        ... done (    78.7 sec)
   => Chain of spheres response operator           ... done (   150.6 sec)
   => XC derivative integrals                      ... done (   193.7 sec)
   => XC response operators                        ... done (    67.0 sec)
   => Completing and storing right hand sides      ... done (     0.7 sec)
   => Total time for right hand sides = 536.5 sec

  geometrical perturbations done (536.5 sec)

Property integrals calculated in 536.6 sec

Maximum memory used throughout the entire PROPINT-calculation: 592.2 MB

-------------------------   --------------------
FINAL SINGLE POINT ENERGY     -1030.741717469695
-------------------------   --------------------

                                *** OPTIMIZATION RUN DONE ***

------------------------------------------------------------------------------
                            ORCA SCF RESPONSE CALCULATION
------------------------------------------------------------------------------

GBWName                                 ... Catechin.gbw
Number of atoms                         ...     35
Number of basis functions               ...    322
Max core memory                         ...   4096 MB

Electric field perturbation             ...  NO
Quadrupolar field perturbation          ...  NO
Magnetic field perturbation (no GIAO)   ...  NO
Magnetic field perturbation (with GIAO) ...  NO
Linear momentum (velocity) perturbation ...  NO
Spin-orbit coupling perturbation        ...  NO
Choice of electric origin               ... Center of mass
Position of electric origin             ...    -0.008399     0.019492     0.059303
Choice of magnetic origin               ... GIAO
Position of magnetic origin             ...     0.000000     0.000000     0.000000
Nuclear geometric perturbations         ... YES ( 105 perturbations)
Nucleus-orbit perturbations             ...  NO (   0 perturbations)
Spin-dipole/Fermi contact perturbations ...  NO (   0 perturbations)

Total number of real perturbations      ...    105
Total number of imaginary perturbations ...      0
Total number of triplet perturbations   ...      0
Total number of SOC perturbations       ...      0


                                **********************
                                * REAL PERTURBATIONS *
                                **********************



-------------------
SHARK CP-SCF DRIVER
-------------------

Dimension of the orbital basis          ...    322
Dimension of the CPSCF-problem          ...  18696
Number of operators                     ...      1
Max. number of iterations               ...    128
Convergence Tolerance                   ... 1.0e-04
Number of perturbations                 ...    105
Perturbation type                       ... REAL

----------------------------
POPLE LINEAR EQUATION SOLVER
----------------------------

  ITERATION   0:   ||err||_max =   5.3087e-01 (  88.3 sec   0/105 done)
  ITERATION   1:   ||err||_max =   6.9359e-02 ( 104.2 sec   0/105 done)
  ITERATION   2:   ||err||_max =   2.7346e-02 ( 106.8 sec   0/105 done)
  ITERATION   3:   ||err||_max =   1.1077e-02 ( 102.9 sec   0/105 done)
  ITERATION   4:   ||err||_max =   4.3023e-03 ( 110.9 sec   0/105 done)
  ITERATION   5:   ||err||_max =   8.5246e-04 ( 108.4 sec   3/105 done)
  ITERATION   6:   ||err||_max =   3.2738e-04 ( 117.1 sec  55/105 done)
  ITERATION   7:   ||err||_max =   9.3564e-05 (  66.1 sec 105/105 done)

CP-SCF equations solved in 824.8 sec
Response densities calculated in   0.5 sec

Maximum memory used throughout the entire SCFRESP-calculation: 639.1 MB

------------------------------------------------------------------------------
                              ORCA PROPERTY CALCULATIONS
------------------------------------------------------------------------------

GBWName                                 ... Catechin.gbw
Number of atoms                         ...     35
Number of basis functions               ...    322
Max core memory                         ...   4096 MB

Electric properties:
Dipole moment                           ... YES
Quadrupole moment                       ...  NO
Static polarizability (Dipole/Dipole)   ...  NO
Static polarizability (Dipole/Quad.)    ...  NO
Static polarizability (Quad./Quad.)     ...  NO
Static polarizability (Velocity)        ...  NO
Static hyperpolarizability              ...  NO

Atomic electric properties:
Dipole moment                           ...  NO
Quadrupole moment                       ...  NO
Static polarizability                   ...  NO

Choice of electric origin               ... Center of mass
Position of electric origin             ...    -0.008399     0.019492     0.059303

General magnetic properties:
Magnetizability                         ...  NO

EPR properties:
g-Tensor (aka g-matrix)                 ...  NO
Zero-Field splitting spin-orbit         ...  NO
Zero-field splitting spin-spin          ...  NO
Hyperfine couplings                     ...  NO (   0 nuclei)
Quadrupole couplings                    ...  NO (   0 nuclei)
Contact density                         ...  NO (   0 nuclei)

NMR properties:
Chemical shifts                         ...  NO (   0 nuclei)
Spin-rotation constants                 ...  NO (   0 nuclei)
Spin-spin couplings                     ...  NO (   0 nuclei,    0 pairs)

Choice of magnetic origin               ... GIAO
Position of magnetic origin             ...     0.000000     0.000000     0.000000

Properties with geometric perturbations:
SCF Hessian                             ... YES
IR spectrum                             ... YES
VCD spectrum                            ...  NO
X-ray spectroscopy properties:
SCF XES/XAS/RIXS spectra                ...  NO

SCF SOC stabilization energy            ...  NO
Diagonal Born-Oppenheimer correction    ...  NO

-------------
DIPOLE MOMENT
-------------

Method             : SCF
Type of density    : Electron Density
Multiplicity       :   1
Irrep              :   0
Energy             : -1030.7417174696950042 Eh
Basis              : AO
                                X                 Y                 Z
Electronic contribution:     -0.869381883       4.504438054       1.184911408
Nuclear contribution   :      1.586868767      -4.896148638      -1.150468214
                        -----------------------------------------
Total Dipole Moment    :      0.717486884      -0.391710583       0.034443194
                        -----------------------------------------
Magnitude (a.u.)       :      0.818175375
Magnitude (Debye)      :      2.079636531



--------------------
Rotational spectrum 
--------------------
 
Rotational constants in cm-1:             0.021824             0.005000             0.004295 
Rotational constants in MHz :           654.268307           149.905993           128.763370 

Dipole components along the rotational axes: 
x,y,z [a.u.] :     0.723973    -0.365415     0.108379 
x,y,z [Debye]:     1.840193    -0.928811     0.275477 

 

Dipole moment calculation done in   0.1 sec 

-----------
SCF HESSIAN
-----------

Occupied/Occupied contributions to the Hessian:
   => Occupied/Occupied contributions              ... done (  5.6 sec)
Perturbed density contributions to the Hessian:
   => Perturbed density contributions              ... done ( 13.5 sec)
Explicit contributions to the Hessian:
   => Nuclear repulsion Hessian                    ... done (  0.0 sec)
   => HCore and overlap Hessian                    ... done ( 63.3 sec)
   => RI-J Hessian                                 ... done ( 49.8 sec)
   => COSX Hessian                                 ... done (911.5 sec)
   => XC-Hessian                                   ... done (115.1 sec)
   => Explicit contributions done
Dipole derivatives                                 ... done (  0.7 sec)
Mass weighting the Hessian           ... done
Calculating normal modes             ... done
Scaling frequencies                  ... done

-----------------------
VIBRATIONAL FREQUENCIES
-----------------------

Scaling factor for frequencies =  1.000000000  (already applied!)

     0:       0.00 cm**-1
     1:       0.00 cm**-1
     2:       0.00 cm**-1
     3:       0.00 cm**-1
     4:       0.00 cm**-1
     5:       0.00 cm**-1
     6:      24.38 cm**-1
     7:      32.84 cm**-1
     8:      53.58 cm**-1
     9:      70.94 cm**-1
    10:     126.16 cm**-1
    11:     163.43 cm**-1
    12:     177.43 cm**-1
    13:     210.83 cm**-1
    14:     214.29 cm**-1
    15:     226.51 cm**-1
    16:     235.09 cm**-1
    17:     253.54 cm**-1
    18:     259.42 cm**-1
    19:     310.14 cm**-1
    20:     317.18 cm**-1
    21:     325.50 cm**-1
    22:     336.96 cm**-1
    23:     345.12 cm**-1
    24:     363.08 cm**-1
    25:     366.96 cm**-1
    26:     387.20 cm**-1
    27:     393.23 cm**-1
    28:     418.97 cm**-1
    29:     437.22 cm**-1
    30:     468.53 cm**-1
    31:     481.09 cm**-1
    32:     515.32 cm**-1
    33:     530.76 cm**-1
    34:     557.40 cm**-1
    35:     565.95 cm**-1
    36:     592.91 cm**-1
    37:     620.31 cm**-1
    38:     632.56 cm**-1
    39:     638.03 cm**-1
    40:     663.09 cm**-1
    41:     675.53 cm**-1
    42:     715.60 cm**-1
    43:     718.49 cm**-1
    44:     773.82 cm**-1
    45:     790.12 cm**-1
    46:     795.17 cm**-1
    47:     803.41 cm**-1
    48:     809.04 cm**-1
    49:     827.25 cm**-1
    50:     862.78 cm**-1
    51:     899.46 cm**-1
    52:     906.55 cm**-1
    53:     998.31 cm**-1
    54:    1007.22 cm**-1
    55:    1052.37 cm**-1
    56:    1054.86 cm**-1
    57:    1065.79 cm**-1
    58:    1099.97 cm**-1
    59:    1122.91 cm**-1
    60:    1136.10 cm**-1
    61:    1187.11 cm**-1
    62:    1191.44 cm**-1
    63:    1198.60 cm**-1
    64:    1207.39 cm**-1
    65:    1208.88 cm**-1
    66:    1215.86 cm**-1
    67:    1219.64 cm**-1
    68:    1248.30 cm**-1
    69:    1257.13 cm**-1
    70:    1278.52 cm**-1
    71:    1297.77 cm**-1
    72:    1331.47 cm**-1
    73:    1334.55 cm**-1
    74:    1342.04 cm**-1
    75:    1359.26 cm**-1
    76:    1379.09 cm**-1
    77:    1389.55 cm**-1
    78:    1397.43 cm**-1
    79:    1412.25 cm**-1
    80:    1420.03 cm**-1
    81:    1449.93 cm**-1
    82:    1492.24 cm**-1
    83:    1511.54 cm**-1
    84:    1519.37 cm**-1
    85:    1562.75 cm**-1
    86:    1580.91 cm**-1
    87:    1660.96 cm**-1
    88:    1665.26 cm**-1
    89:    1679.41 cm**-1
    90:    1681.32 cm**-1
    91:    2995.60 cm**-1
    92:    3021.13 cm**-1
    93:    3029.12 cm**-1
    94:    3064.64 cm**-1
    95:    3164.71 cm**-1
    96:    3185.33 cm**-1
    97:    3196.42 cm**-1
    98:    3198.51 cm**-1
    99:    3208.94 cm**-1
   100:    3737.33 cm**-1
   101:    3745.05 cm**-1
   102:    3745.94 cm**-1
   103:    3746.27 cm**-1
   104:    3747.82 cm**-1


------------
NORMAL MODES
------------

These modes are the Cartesian displacements weighted by the diagonal matrix
M(i,i)=1/sqrt(m[i]) where m[i] is the mass of the displaced atom
Thus, these vectors are normalized but *not* orthogonal

                  0          1          2          3          4          5    
      0       0.000000   0.000000   0.000000   0.000000   0.000000   0.000000
      1       0.000000   0.000000   0.000000   0.000000   0.000000   0.000000
      2       0.000000   0.000000   0.000000   0.000000   0.000000   0.000000
      3       0.000000   0.000000   0.000000   0.000000   0.000000   0.000000
      4       0.000000   0.000000   0.000000   0.000000   0.000000   0.000000
      5       0.000000   0.000000   0.000000   0.000000   0.000000   0.000000
      6       0.000000   0.000000   0.000000   0.000000   0.000000   0.000000
      7       0.000000   0.000000   0.000000   0.000000   0.000000   0.000000
      8       0.000000   0.000000   0.000000   0.000000   0.000000   0.000000
      9       0.000000   0.000000   0.000000   0.000000   0.000000   0.000000
     10       0.000000   0.000000   0.000000   0.000000   0.000000   0.000000
     11       0.000000   0.000000   0.000000   0.000000   0.000000   0.000000
     12       0.000000   0.000000   0.000000   0.000000   0.000000   0.000000
     13       0.000000   0.000000   0.000000   0.000000   0.000000   0.000000
     14       0.000000   0.000000   0.000000   0.000000   0.000000   0.000000
     15       0.000000   0.000000   0.000000   0.000000   0.000000   0.000000
     16       0.000000   0.000000   0.000000   0.000000   0.000000   0.000000
     17       0.000000   0.000000   0.000000   0.000000   0.000000   0.000000
     18       0.000000   0.000000   0.000000   0.000000   0.000000   0.000000
     19       0.000000   0.000000   0.000000   0.000000   0.000000   0.000000
     20       0.000000   0.000000   0.000000   0.000000   0.000000   0.000000
     21       0.000000   0.000000   0.000000   0.000000   0.000000   0.000000
     22       0.000000   0.000000   0.000000   0.000000   0.000000   0.000000
     23       0.000000   0.000000   0.000000   0.000000   0.000000   0.000000
     24       0.000000   0.000000   0.000000   0.000000   0.000000   0.000000
     25       0.000000   0.000000   0.000000   0.000000   0.000000   0.000000
     26       0.000000   0.000000   0.000000   0.000000   0.000000   0.000000
     27       0.000000   0.000000   0.000000   0.000000   0.000000   0.000000
     28       0.000000   0.000000   0.000000   0.000000   0.000000   0.000000
     29       0.000000   0.000000   0.000000   0.000000   0.000000   0.000000
     30       0.000000   0.000000   0.000000   0.000000   0.000000   0.000000
     31       0.000000   0.000000   0.000000   0.000000   0.000000   0.000000
     32       0.000000   0.000000   0.000000   0.000000   0.000000   0.000000
     33       0.000000   0.000000   0.000000   0.000000   0.000000   0.000000
     34       0.000000   0.000000   0.000000   0.000000   0.000000   0.000000
     35       0.000000   0.000000   0.000000   0.000000   0.000000   0.000000
     36       0.000000   0.000000   0.000000   0.000000   0.000000   0.000000
     37       0.000000   0.000000   0.000000   0.000000   0.000000   0.000000
     38       0.000000   0.000000   0.000000   0.000000   0.000000   0.000000
     39       0.000000   0.000000   0.000000   0.000000   0.000000   0.000000
     40       0.000000   0.000000   0.000000   0.000000   0.000000   0.000000
     41       0.000000   0.000000   0.000000   0.000000   0.000000   0.000000
     42       0.000000   0.000000   0.000000   0.000000   0.000000   0.000000
     43       0.000000   0.000000   0.000000   0.000000   0.000000   0.000000
     44       0.000000   0.000000   0.000000   0.000000   0.000000   0.000000
     45       0.000000   0.000000   0.000000   0.000000   0.000000   0.000000
     46       0.000000   0.000000   0.000000   0.000000   0.000000   0.000000
     47       0.000000   0.000000   0.000000   0.000000   0.000000   0.000000
     48       0.000000   0.000000   0.000000   0.000000   0.000000   0.000000
     49       0.000000   0.000000   0.000000   0.000000   0.000000   0.000000
     50       0.000000   0.000000   0.000000   0.000000   0.000000   0.000000
     51       0.000000   0.000000   0.000000   0.000000   0.000000   0.000000
     52       0.000000   0.000000   0.000000   0.000000   0.000000   0.000000
     53       0.000000   0.000000   0.000000   0.000000   0.000000   0.000000
     54       0.000000   0.000000   0.000000   0.000000   0.000000   0.000000
     55       0.000000   0.000000   0.000000   0.000000   0.000000   0.000000
     56       0.000000   0.000000   0.000000   0.000000   0.000000   0.000000
     57       0.000000   0.000000   0.000000   0.000000   0.000000   0.000000
     58       0.000000   0.000000   0.000000   0.000000   0.000000   0.000000
     59       0.000000   0.000000   0.000000   0.000000   0.000000   0.000000
     60       0.000000   0.000000   0.000000   0.000000   0.000000   0.000000
     61       0.000000   0.000000   0.000000   0.000000   0.000000   0.000000
     62       0.000000   0.000000   0.000000   0.000000   0.000000   0.000000
     63       0.000000   0.000000   0.000000   0.000000   0.000000   0.000000
     64       0.000000   0.000000   0.000000   0.000000   0.000000   0.000000
     65       0.000000   0.000000   0.000000   0.000000   0.000000   0.000000
     66       0.000000   0.000000   0.000000   0.000000   0.000000   0.000000
     67       0.000000   0.000000   0.000000   0.000000   0.000000   0.000000
     68       0.000000   0.000000   0.000000   0.000000   0.000000   0.000000
     69       0.000000   0.000000   0.000000   0.000000   0.000000   0.000000
     70       0.000000   0.000000   0.000000   0.000000   0.000000   0.000000
     71       0.000000   0.000000   0.000000   0.000000   0.000000   0.000000
     72       0.000000   0.000000   0.000000   0.000000   0.000000   0.000000
     73       0.000000   0.000000   0.000000   0.000000   0.000000   0.000000
     74       0.000000   0.000000   0.000000   0.000000   0.000000   0.000000
     75       0.000000   0.000000   0.000000   0.000000   0.000000   0.000000
     76       0.000000   0.000000   0.000000   0.000000   0.000000   0.000000
     77       0.000000   0.000000   0.000000   0.000000   0.000000   0.000000
     78       0.000000   0.000000   0.000000   0.000000   0.000000   0.000000
     79       0.000000   0.000000   0.000000   0.000000   0.000000   0.000000
     80       0.000000   0.000000   0.000000   0.000000   0.000000   0.000000
     81       0.000000   0.000000   0.000000   0.000000   0.000000   0.000000
     82       0.000000   0.000000   0.000000   0.000000   0.000000   0.000000
     83       0.000000   0.000000   0.000000   0.000000   0.000000   0.000000
     84       0.000000   0.000000   0.000000   0.000000   0.000000   0.000000
     85       0.000000   0.000000   0.000000   0.000000   0.000000   0.000000
     86       0.000000   0.000000   0.000000   0.000000   0.000000   0.000000
     87       0.000000   0.000000   0.000000   0.000000   0.000000   0.000000
     88       0.000000   0.000000   0.000000   0.000000   0.000000   0.000000
     89       0.000000   0.000000   0.000000   0.000000   0.000000   0.000000
     90       0.000000   0.000000   0.000000   0.000000   0.000000   0.000000
     91       0.000000   0.000000   0.000000   0.000000   0.000000   0.000000
     92       0.000000   0.000000   0.000000   0.000000   0.000000   0.000000
     93       0.000000   0.000000   0.000000   0.000000   0.000000   0.000000
     94       0.000000   0.000000   0.000000   0.000000   0.000000   0.000000
     95       0.000000   0.000000   0.000000   0.000000   0.000000   0.000000
     96       0.000000   0.000000   0.000000   0.000000   0.000000   0.000000
     97       0.000000   0.000000   0.000000   0.000000   0.000000   0.000000
     98       0.000000   0.000000   0.000000   0.000000   0.000000   0.000000
     99       0.000000   0.000000   0.000000   0.000000   0.000000   0.000000
    100       0.000000   0.000000   0.000000   0.000000   0.000000   0.000000
    101       0.000000   0.000000   0.000000   0.000000   0.000000   0.000000
    102       0.000000   0.000000   0.000000   0.000000   0.000000   0.000000
    103       0.000000   0.000000   0.000000   0.000000   0.000000   0.000000
    104       0.000000   0.000000   0.000000   0.000000   0.000000   0.000000
                  6          7          8          9         10         11    
      0       0.006891  -0.007193   0.048973   0.023193   0.031393   0.007354
      1       0.018204   0.001030   0.118494   0.031021   0.032568  -0.070274
      2       0.018839   0.279993   0.005706  -0.208069  -0.047745   0.083695
      3      -0.027012   0.002826  -0.086044  -0.081756   0.034833  -0.008168
      4       0.029826   0.007330   0.160463   0.050677   0.017739  -0.060992
      5       0.109196   0.075302  -0.043197   0.430051  -0.003057   0.097588
      6      -0.014348   0.037152  -0.085163  -0.001832   0.003063   0.094646
      7      -0.007571  -0.013840  -0.077757  -0.012851  -0.016738   0.014260
      8       0.055679  -0.306549   0.057593  -0.162368   0.124291   0.083358
      9       0.042195   0.049234   0.175075  -0.010925   0.077428  -0.068245
     10      -0.005864  -0.020451  -0.092660  -0.023567  -0.027477   0.030450
     11      -0.152920  -0.026407  -0.043149   0.272705  -0.005468  -0.087697
     12      -0.067038  -0.149329  -0.102723   0.008122  -0.167458  -0.040122
     13      -0.246932   0.063689  -0.035710  -0.035329  -0.015538   0.128977
     14       0.150310  -0.101361  -0.022505  -0.006229   0.026821  -0.077676
     15      -0.000590  -0.039773  -0.061474   0.003368  -0.056751  -0.041997
     16       0.029487  -0.010756  -0.321913  -0.037834   0.100655  -0.177423
     17      -0.086013  -0.174095   0.108736   0.004397  -0.146673   0.123683
     18      -0.015391   0.012586  -0.054380   0.033591   0.075657   0.047890
     19       0.033386  -0.009975   0.127897   0.090506   0.004370  -0.061976
     20       0.077453   0.098811  -0.021429   0.103572  -0.045797  -0.014461
     21       0.006321   0.015249   0.019392  -0.005663  -0.020266  -0.012200
     22       0.011173   0.031567   0.151384  -0.017083   0.027648  -0.036613
     23       0.032879   0.162016  -0.029539  -0.041565   0.044367   0.045630
     24      -0.016146   0.007359  -0.063142  -0.015970   0.042434   0.028564
     25       0.008983  -0.000942   0.061291   0.015924   0.025795  -0.045899
     26       0.099001   0.045618   0.023725  -0.084611  -0.233470  -0.209656
     27      -0.004023   0.012799  -0.013149   0.008431   0.041742   0.040261
     28       0.006001  -0.000817   0.027198   0.004972   0.013307  -0.057139
     29       0.039860   0.014765   0.024044  -0.146487  -0.111089  -0.053610
     30       0.008616   0.007901   0.046657   0.013401   0.041668   0.010030
     31       0.010857   0.003409   0.057032   0.010966   0.017467  -0.065645
     32       0.000923   0.149469   0.006963  -0.129551  -0.090892   0.025624
     33       0.007863   0.003379   0.016277   0.002818  -0.028718  -0.002604
     34       0.022521   0.007089   0.145402   0.001502  -0.014945   0.032019
     35      -0.002947   0.100672  -0.056281  -0.040233   0.143458   0.026889
     36      -0.001331   0.031845  -0.015417   0.002787   0.026267   0.036373
     37      -0.002937  -0.010345  -0.045454  -0.008102  -0.008619  -0.015021
     38       0.015059  -0.154158   0.031451  -0.102204   0.022827   0.024016
     39       0.024209   0.017947   0.112529   0.013026   0.063166  -0.031949
     40       0.006908  -0.002976   0.019899   0.001759   0.006442  -0.048305
     41      -0.061891   0.147139  -0.013488  -0.015326  -0.081635   0.044475
     42      -0.027453  -0.066358  -0.026981   0.008135  -0.078578  -0.021546
     43      -0.112352   0.036547   0.133464  -0.007250  -0.011770   0.018944
     44       0.087338   0.048344  -0.065511  -0.031824   0.124768   0.034493
     45       0.041896   0.058843   0.039884   0.000543  -0.005684   0.020816
     46       0.162938  -0.033875   0.043352   0.007255  -0.067904   0.181098
     47      -0.121833   0.063869  -0.021650  -0.040052   0.146876  -0.087187
     48       0.013943   0.043546   0.046885  -0.000615   0.035911  -0.002540
     49      -0.006958  -0.016667  -0.084629  -0.017159  -0.020228   0.013492
     50      -0.048066  -0.167878   0.011605   0.017682   0.066525   0.038012
     51       0.026935   0.036598   0.111162   0.000201   0.057709  -0.029023
     52      -0.001728  -0.013300  -0.051575  -0.013581  -0.013576  -0.003164
     53      -0.087467  -0.010010  -0.015223   0.088619  -0.016579  -0.000409
     54      -0.030119  -0.081276  -0.052671   0.007873  -0.097249  -0.021798
     55      -0.111818   0.030109  -0.006422  -0.019682  -0.016520   0.063822
     56       0.061188  -0.043525  -0.022728  -0.018051   0.057871  -0.018645
     57       0.038045   0.046242   0.017738  -0.000173  -0.011559   0.015701
     58       0.167722  -0.043580  -0.100761  -0.003649  -0.064335   0.163683
     59      -0.153814  -0.025252   0.024530  -0.028835   0.071514  -0.096803
     60       0.003208  -0.023486  -0.030692   0.003825  -0.054770  -0.015884
     61       0.031313  -0.008865  -0.144216  -0.020620   0.004436   0.019609
     62      -0.063602  -0.080889   0.037639  -0.014783  -0.001976  -0.000085
     63      -0.020371   0.035932  -0.078568   0.215721   0.203216   0.197293
     64       0.072481  -0.051308   0.137677   0.286974  -0.048110  -0.066937
     65       0.069137   0.110687  -0.027381   0.094978  -0.014458   0.011240
     66       0.024080   0.069666   0.046112  -0.045297  -0.131433  -0.028232
     67      -0.017802   0.107968   0.155588  -0.148634   0.038852   0.002261
     68       0.042092   0.159012  -0.024776  -0.025824   0.019630   0.034463
     69      -0.014698  -0.028836  -0.054761  -0.151901  -0.058302  -0.074579
     70      -0.038846   0.003128   0.043741   0.009662   0.183629   0.136542
     71       0.121553   0.040411   0.032729  -0.094791  -0.318223  -0.306276
     72      -0.025523   0.038726  -0.112890   0.050046   0.109175   0.086142
     73       0.039964  -0.003341   0.055700   0.010240  -0.087351  -0.181727
     74       0.135669   0.027665   0.044001  -0.125005  -0.385893  -0.379301
     75       0.033518   0.012775   0.165305   0.019351   0.081456  -0.068591
     76       0.010330   0.000658   0.048627   0.007689   0.016505  -0.067879
     77      -0.091844   0.255923  -0.030279   0.022861  -0.086871   0.065210
     78      -0.052027  -0.110918  -0.047689   0.011196  -0.111599  -0.036669
     79      -0.218043   0.067008   0.209212  -0.009284   0.014857  -0.022355
     80       0.182781   0.076570  -0.091250  -0.032887   0.145568   0.077524
     81      -0.031289   0.032528  -0.127246   0.010396   0.145542   0.123386
     82       0.038512  -0.015753   0.148300   0.107042  -0.012716  -0.077200
     83       0.127457   0.015063  -0.036875   0.467395  -0.130450  -0.018484
     84       0.070140   0.113931   0.075917  -0.001110   0.029235   0.039234
     85       0.270635  -0.057150   0.049552   0.017492  -0.092617   0.270504
     86      -0.196063   0.103653  -0.012093  -0.049478   0.180177  -0.151178
     87       0.016109   0.057953   0.045515  -0.007843   0.025245  -0.003382
     88      -0.014128  -0.023780  -0.138401  -0.026417  -0.032696   0.041563
     89      -0.068363  -0.296646   0.014040   0.079521   0.158451   0.052265
     90       0.064162   0.091295   0.035773  -0.002837   0.022797   0.032899
     91       0.279255  -0.075300  -0.196718  -0.001148  -0.083382   0.215558
     92      -0.248699  -0.054233   0.063053  -0.027365   0.046324  -0.146205
     93      -0.010335   0.053716  -0.079023  -0.009620  -0.010486   0.080500
     94      -0.012635  -0.024013  -0.128945  -0.024138  -0.024490   0.067696
     95       0.031685  -0.414436   0.057433  -0.098007   0.225557   0.137564
     96       0.049570   0.042362   0.219622  -0.006795   0.100005  -0.102480
     97      -0.002012  -0.016376  -0.060961  -0.018134  -0.014976   0.003449
     98      -0.173578   0.092912  -0.057377   0.303754  -0.059838  -0.110708
     99      -0.088646  -0.183691  -0.116686   0.008406  -0.206039  -0.053369
    100      -0.334063   0.088421   0.062531  -0.036409  -0.008625   0.139322
    101       0.232714  -0.065941  -0.059726  -0.006053   0.078833  -0.064351
    102       0.023693   0.006462  -0.040048  -0.000531  -0.014218  -0.034751
    103       0.135495  -0.040035  -0.410671  -0.039313   0.114641  -0.211478
    104      -0.173446  -0.191600   0.149067   0.008402  -0.189205   0.139804
                 12         13         14         15         16         17    
      0       0.045421  -0.048619   0.036947   0.008809  -0.006398  -0.039784
      1      -0.037730   0.041309  -0.012722   0.025611   0.010464  -0.022202
      2      -0.105213  -0.011411  -0.154277  -0.108022  -0.000344   0.168533
      3       0.108885   0.131476   0.130225  -0.077987   0.012688   0.113329
      4      -0.068862  -0.075456  -0.085183   0.069278   0.005428  -0.120790
      5      -0.125481   0.030326   0.047127  -0.067151  -0.032051   0.004277
      6       0.095184  -0.178362   0.132785  -0.029108  -0.008065  -0.097702
      7       0.007257  -0.031871   0.014031  -0.005227   0.008299  -0.014979
      8      -0.029222  -0.021528  -0.187718  -0.210581   0.043883  -0.048609
      9      -0.011732   0.101689   0.121327  -0.047059   0.050418   0.026473
     10       0.002865  -0.054710  -0.019088   0.019094  -0.010578  -0.015224
     11       0.186494   0.010581  -0.175928  -0.097440   0.006533   0.028617
     12      -0.137375   0.046428  -0.055524  -0.014047   0.023524   0.012956
     13       0.078151   0.083766  -0.050397   0.091323   0.053433  -0.064629
     14      -0.026305  -0.070864   0.027112  -0.055130  -0.048899   0.054535
     15      -0.085758  -0.002595  -0.126098   0.066971  -0.014440   0.002984
     16      -0.067557  -0.027763   0.074786  -0.060257   0.007693  -0.016638
     17       0.042623   0.044363   0.064626  -0.050958   0.015137   0.012956
     18      -0.011836   0.037917   0.032730  -0.012921   0.011231   0.019860
     19      -0.039264  -0.004967   0.015740  -0.006966   0.005166  -0.046202
     20       0.046424   0.029290  -0.030279   0.012001  -0.026136   0.001678
     21      -0.022733  -0.009743  -0.031909   0.010930  -0.002678  -0.001071
     22      -0.042082  -0.025501  -0.029699  -0.002583   0.000695  -0.010315
     23       0.033409   0.018686  -0.089637   0.027073  -0.015584   0.042992
     24       0.036736   0.022609   0.052238  -0.022803   0.013661   0.018895
     25      -0.027562   0.071834   0.035055  -0.023482   0.012362   0.025914
     26       0.223906   0.014573   0.018900   0.008644  -0.017276  -0.042579
     27       0.054299  -0.045360   0.061985  -0.041126   0.004805  -0.019466
     28      -0.026187   0.091430   0.006467  -0.009844   0.019528   0.040358
     29      -0.003840   0.002991   0.163795   0.069858  -0.012809  -0.047343
     30       0.051744  -0.040661   0.032919  -0.016159   0.001705  -0.013250
     31      -0.035353   0.087316  -0.009151  -0.002897   0.020136   0.035699
     32      -0.130863  -0.002337   0.105445  -0.016163   0.014517  -0.037915
     33      -0.027402  -0.018205  -0.079266   0.045917  -0.016978   0.003738
     34       0.027753  -0.077341  -0.002086  -0.016522  -0.050055   0.021046
     35       0.073379   0.016395  -0.087484   0.106243   0.004678  -0.019845
     36       0.065699  -0.061225   0.074742  -0.046654   0.005511  -0.036929
     37      -0.006412   0.023566   0.000806  -0.002579   0.011762   0.013960
     38      -0.047859  -0.001591   0.122790   0.088465  -0.016030   0.002498
     39       0.048897   0.012885   0.046827  -0.018004   0.010907   0.011602
     40      -0.025124   0.066523  -0.009215  -0.001486   0.017825   0.035780
     41      -0.201744  -0.001013   0.161368  -0.091306   0.059639  -0.175493
     42      -0.067708  -0.013230  -0.082963   0.035003  -0.020243   0.014753
     43       0.021811  -0.130911   0.035476  -0.088343  -0.112591   0.113772
     44       0.075915   0.056523  -0.108855   0.157369   0.048466  -0.088659
     45      -0.018821  -0.014901  -0.154546   0.102978  -0.024048   0.002562
     46       0.107041   0.022820  -0.010657   0.038371   0.005821  -0.021143
     47       0.013107  -0.048571  -0.025689   0.029858  -0.026108   0.007342
     48       0.049461  -0.011579   0.059765  -0.067327   0.019718  -0.032553
     49       0.004492  -0.019545  -0.003243  -0.004031   0.004322  -0.003406
     50      -0.052851   0.005520   0.218977   0.278813  -0.060965   0.129143
     51       0.030568   0.020802   0.060479  -0.042438   0.022332  -0.002547
     52      -0.005466  -0.001031  -0.009690   0.002332   0.006678   0.007350
     53      -0.042664   0.003578   0.120435   0.063189  -0.001594  -0.018107
     54      -0.081538   0.005038  -0.087100   0.034381  -0.010014   0.011540
     55       0.044228  -0.034608   0.013376  -0.029420  -0.046118   0.057470
     56       0.022348   0.005851  -0.039095   0.061474   0.015144  -0.042409
     57      -0.026467  -0.013972  -0.159300   0.103905  -0.026062   0.008279
     58       0.095780   0.036667   0.020426  -0.002718  -0.002952   0.029187
     59      -0.019440  -0.038729   0.004558   0.004271  -0.005951  -0.022517
     60      -0.066834  -0.006422  -0.138925   0.078537  -0.021130   0.010097
     61       0.025735  -0.016642   0.040968  -0.042931  -0.025338   0.044354
     62       0.014441   0.006901   0.000858   0.019011   0.015419  -0.031703
     63      -0.163514   0.027935   0.016426  -0.021815  -0.002389   0.012553
     64      -0.105847  -0.023621   0.072847  -0.047425   0.014967  -0.064682
     65       0.033995   0.032588  -0.043707   0.017874  -0.031606   0.002189
     66      -0.106023  -0.001270  -0.066823  -0.066968  -0.007925   0.063201
     67      -0.119534  -0.033259  -0.073841  -0.058708   0.026866   0.068491
     68       0.030106   0.023492  -0.088232   0.020741  -0.021279   0.041416
     69       0.112160   0.037775   0.100398  -0.019130   0.015547  -0.007878
     70      -0.253224   0.079480   0.094768   0.019986   0.007973   0.050556
     71       0.338507   0.010749  -0.004185  -0.010375  -0.012858  -0.054974
     72      -0.018757   0.073857  -0.014677  -0.019029   0.016114   0.073910
     73       0.129162   0.093189  -0.028662  -0.051358   0.012967   0.016361
     74       0.414722   0.009748  -0.008588  -0.023412  -0.020083  -0.084007
     75       0.040112   0.065928   0.076974  -0.006386   0.017125   0.035387
     76      -0.031794   0.096829   0.000755  -0.005884   0.024344   0.045695
     77      -0.231424   0.001677   0.039641  -0.270607   0.105909  -0.233998
     78      -0.093274  -0.009287  -0.073563   0.019629  -0.018657   0.020021
     79       0.011083  -0.176971   0.055142  -0.116377  -0.139822   0.139852
     80       0.113255   0.081404  -0.129694   0.192889   0.064769  -0.112892
     81      -0.045313   0.635573   0.109413  -0.366292  -0.608739  -0.361910
     82      -0.038745  -0.156160   0.007039   0.077553   0.172092   0.067571
     83       0.030177  -0.446962   0.222281   0.139492   0.673754   0.650712
     84      -0.002742  -0.017867  -0.218804   0.159434  -0.030499  -0.006629
     85       0.153321   0.093357  -0.049524   0.115173   0.059707  -0.087602
     86      -0.017371  -0.105686  -0.021945  -0.007284  -0.071315   0.055545
     87       0.042053  -0.013005   0.071749  -0.072336   0.022727  -0.047403
     88       0.017932  -0.049117   0.008492  -0.007195  -0.001942  -0.015432
     89       0.017172   0.006576   0.115953   0.322033  -0.088400   0.256275
     90       0.000402  -0.016646  -0.172191   0.123955  -0.027186   0.003203
     91       0.118763   0.095170   0.004271   0.034596   0.031996   0.005199
     92      -0.061897  -0.070992   0.027748  -0.039326  -0.025917  -0.002744
     93       0.092362  -0.166570   0.146812  -0.019791  -0.007124  -0.096483
     94       0.034184  -0.132514   0.032249  -0.027167   0.005972  -0.075811
     95      -0.031436  -0.020013  -0.301652  -0.257117   0.038589  -0.005850
     96      -0.023869   0.165167   0.157931  -0.041452   0.066590   0.065694
     97      -0.005587  -0.007598  -0.001672   0.006617   0.005244   0.005702
     98       0.192447   0.015059  -0.302554  -0.312713   0.056973  -0.074331
     99      -0.169519   0.061422  -0.040495  -0.040667   0.040549   0.016889
    100       0.107408   0.073331  -0.075143   0.156860   0.094376  -0.116880
    101       0.003498  -0.086568   0.019949  -0.054827  -0.097656   0.079486
    102      -0.063789  -0.015773  -0.175483   0.119286  -0.019643  -0.006800
    103      -0.076689   0.007471   0.073484  -0.015011   0.080913  -0.097101
    104       0.030910   0.031991   0.103598  -0.120825  -0.028034   0.072512
                 18         19         20         21         22         23    
      0       0.011804  -0.005134  -0.028294  -0.009258   0.012952   0.000106
      1       0.010278  -0.000269  -0.025640  -0.008689   0.024649  -0.000200
      2      -0.243862  -0.052161  -0.071258   0.020622  -0.014926  -0.000364
      3       0.144401  -0.024758  -0.140732  -0.022474  -0.016728  -0.000974
      4      -0.114603  -0.003683  -0.033063   0.017594   0.121368   0.001903
      5      -0.031027  -0.018237  -0.030183  -0.024079  -0.034069  -0.000778
      6      -0.156939   0.036511   0.093991   0.027779  -0.066406  -0.001250
      7      -0.052008   0.031851   0.131637   0.035874  -0.055349  -0.000218
      8       0.033333   0.003629   0.012469  -0.011862  -0.004983  -0.000004
      9      -0.059071   0.054118   0.219221   0.061311  -0.071980   0.000510
     10      -0.000847  -0.023937  -0.088935  -0.026336   0.054862   0.000136
     11      -0.065272   0.006326   0.046766  -0.070503  -0.004312  -0.000476
     12      -0.111094   0.305061  -0.050404  -0.002270   0.020556   0.006394
     13      -0.034901   0.097406  -0.034829  -0.003297   0.002438   0.039782
     14       0.056409   0.198409  -0.029473  -0.002666  -0.032763  -0.028691
     15       0.050002  -0.193165   0.061609  -0.000079  -0.023194  -0.007583
     16      -0.063791  -0.204036  -0.004730  -0.002126   0.006193  -0.053206
     17      -0.041507  -0.277046   0.066446   0.012235   0.049986   0.037406
     18       0.035952  -0.012460  -0.058835  -0.010253   0.066587   0.001300
     19      -0.040383  -0.024775  -0.103793  -0.008868   0.020325  -0.000747
     20       0.003519   0.025879   0.049945   0.029147   0.035652   0.000974
     21      -0.004213  -0.021379  -0.027287   0.003442   0.026683   0.000739
     22      -0.045399  -0.023896  -0.091029  -0.012325  -0.007057  -0.000887
     23      -0.012623   0.034163   0.061799   0.021243   0.048850   0.001480
     24       0.024134  -0.010516  -0.050434   0.006920   0.053932   0.001228
     25       0.007912  -0.001811  -0.019286  -0.031079  -0.005129  -0.000598
     26      -0.001235  -0.007226  -0.040982   0.076796   0.002065   0.000217
     27      -0.036564  -0.009086  -0.060108   0.011529   0.026599   0.000148
     28       0.020830   0.002967   0.017554   0.000158   0.007395   0.000351
     29       0.007463   0.018641   0.080337  -0.260944   0.012913  -0.000713
     30      -0.037852  -0.005194  -0.027449   0.001393   0.012637   0.000100
     31       0.008197   0.007243   0.040553   0.006876  -0.001524   0.000343
     32       0.026174  -0.001347   0.014060  -0.084340   0.003956  -0.000287
     33       0.049112  -0.019631  -0.006019  -0.001442  -0.009952  -0.000200
     34       0.071606  -0.019550  -0.062375  -0.019115  -0.096503  -0.002964
     35       0.076799   0.036056   0.048827   0.011058   0.043658   0.001811
     36      -0.050500  -0.004217  -0.049013  -0.004532   0.025160  -0.000037
     37      -0.003818   0.010471   0.052998   0.014512  -0.006215   0.000379
     38      -0.016520   0.006591   0.024979  -0.090640   0.007574  -0.000211
     39      -0.067112  -0.002886  -0.016437  -0.022264   0.028584   0.000050
     40      -0.000035   0.014523   0.079061   0.013836  -0.022267   0.000447
     41       0.240740   0.014858  -0.017027   0.120250   0.001325   0.000181
     42       0.051057  -0.058585   0.028571  -0.000794  -0.016992   0.001123
     43       0.171064   0.004007   0.026574  -0.000559  -0.040463   0.013034
     44       0.018509  -0.023410  -0.006767  -0.003002  -0.012178  -0.010070
     45       0.090963  -0.018570   0.011519  -0.002539  -0.027172  -0.000932
     46       0.028936  -0.010181  -0.062144  -0.017030  -0.081746  -0.005454
     47       0.080239   0.033972   0.034534   0.010079   0.039570   0.003924
     48      -0.019628  -0.007862  -0.061692  -0.035032   0.052396   0.000100
     49      -0.015205   0.009285   0.046866   0.007611  -0.010912   0.000189
     50      -0.131424  -0.017611  -0.055387   0.111173  -0.001252   0.000581
     51      -0.048529   0.003141   0.001388  -0.015761   0.025676   0.000128
     52      -0.015255   0.010060   0.058348   0.010494  -0.012470   0.000321
     53       0.034582   0.001092  -0.021643   0.086142  -0.000741   0.000197
     54       0.024330  -0.052589   0.033482   0.000775  -0.007086   0.000160
     55       0.090503   0.071826   0.039791   0.009917   0.027899   0.004940
     56       0.013663   0.039176  -0.045858  -0.011405  -0.061182  -0.003708
     57       0.099398   0.019406   0.022067  -0.000184  -0.020283  -0.000673
     58       0.045494   0.070315   0.043726   0.014532   0.058161  -0.002834
     59       0.003813   0.033823  -0.060702  -0.012527  -0.059717   0.002656
     60       0.074399  -0.070159   0.048486   0.000275  -0.022752  -0.000922
     61       0.044402   0.065399   0.046230   0.015477   0.068351   0.000941
     62      -0.017059   0.016040  -0.056414  -0.012695  -0.063023  -0.000459
     63       0.003909  -0.007793  -0.037342  -0.051781   0.092126   0.001777
     64      -0.067402  -0.064456  -0.185095  -0.021161  -0.018577  -0.001590
     65       0.002807   0.033874   0.067351   0.024409   0.048241   0.001324
     66      -0.127149  -0.058274  -0.054779   0.016927   0.012379   0.000656
     67      -0.157783  -0.067681  -0.168591  -0.023537  -0.033465  -0.001509
     68      -0.019061   0.034475   0.070901   0.026150   0.051079   0.001655
     69       0.026755  -0.030334  -0.084391  -0.004094   0.040755   0.000947
     70       0.005571   0.039558   0.147539  -0.335762   0.016757  -0.000978
     71       0.001843  -0.028617  -0.123449   0.220624  -0.009323   0.000388
     72       0.052663   0.012652   0.032920   0.044928   0.070904   0.002414
     73       0.019805  -0.027695  -0.113995   0.202708  -0.013408   0.000122
     74      -0.005884  -0.046348  -0.183468   0.297759  -0.017210   0.000292
     75      -0.068179  -0.002697  -0.022202  -0.038967   0.040854  -0.000117
     76       0.004433   0.014545   0.073988   0.010361  -0.014801   0.000360
     77       0.323893   0.014939  -0.040012   0.221799   0.000640   0.000370
     78       0.039115  -0.059599   0.035143  -0.002118  -0.025753   0.005664
     79       0.212697   0.006013   0.023929  -0.001564  -0.042648   0.056886
     80       0.005199  -0.018685  -0.013667  -0.001069  -0.000528  -0.043151
     81      -0.143272  -0.045055  -0.169962  -0.023392  -0.138865  -0.005521
     82       0.018606  -0.025329  -0.102210  -0.016625   0.060661   0.000245
     83       0.393726  -0.042443  -0.130737  -0.083282  -0.059796  -0.000680
     84       0.134427  -0.047037   0.024409  -0.005205  -0.045736  -0.003481
     85      -0.016991  -0.035630  -0.117847  -0.031635  -0.133608  -0.019932
     86       0.133867   0.043941   0.084131   0.020752   0.073300   0.014408
     87      -0.003783  -0.005463  -0.058044  -0.037407   0.052396   0.000024
     88      -0.012978   0.008279   0.033279   0.004644  -0.015523   0.000095
     89      -0.278728  -0.038021  -0.085831   0.131841  -0.004168   0.001224
     90       0.117143   0.015180   0.020757   0.000854  -0.011855  -0.005450
     91       0.019875   0.080595   0.059874   0.018380   0.077438  -0.047140
     92       0.000815   0.027977  -0.068076  -0.015920  -0.080366   0.034330
     93      -0.142424   0.035683   0.100086  -0.063910  -0.049632  -0.000910
     94      -0.139552   0.071267   0.272434   0.062451  -0.143913  -0.001258
     95       0.004827  -0.024465  -0.152773   0.611711  -0.047641  -0.001536
     96      -0.090513   0.097342   0.402454   0.132539  -0.155966   0.000189
     97      -0.017001   0.008821   0.050985   0.012856  -0.007599   0.000258
     98       0.030400   0.015985   0.102359  -0.245800  -0.011518   0.003827
     99      -0.181730   0.497895  -0.118057  -0.010767  -0.019730  -0.050257
    100      -0.035112  -0.147504  -0.240145  -0.073046  -0.532732  -0.502562
    101       0.159476   0.061923   0.188744   0.050449   0.338486   0.370925
    102       0.098169   0.081677  -0.014107  -0.014881  -0.113775   0.070923
    103      -0.168045  -0.446161  -0.199641  -0.067591  -0.428177   0.615453
    104      -0.011886  -0.337672   0.251991   0.066037   0.400792  -0.455103
                 24         25         26         27         28         29    
      0       0.013360  -0.000439   0.083621  -0.008128   0.018609   0.014049
      1      -0.002957   0.000229  -0.088591   0.015589   0.030604  -0.037673
      2      -0.025026  -0.003072  -0.007462  -0.010759  -0.047242  -0.007853
      3      -0.040157  -0.003555  -0.189604   0.033254   0.087402  -0.033167
      4       0.050001   0.009195  -0.158968   0.010457   0.014802   0.122358
      5      -0.030402  -0.003055   0.019800  -0.009918  -0.084191   0.011628
      6      -0.048284  -0.004642  -0.168845   0.039765   0.045091  -0.087290
      7      -0.014507   0.002430  -0.023819  -0.002632  -0.010297   0.023168
      8      -0.009814   0.014928  -0.054266  -0.075389   0.030921  -0.027553
      9      -0.006561   0.013519   0.041437  -0.015594  -0.038170   0.055221
     10       0.040400  -0.001367   0.237920  -0.022275  -0.006413  -0.098092
     11       0.009469  -0.081285  -0.008600  -0.008784  -0.016082   0.016876
     12       0.011391  -0.000607  -0.007944   0.007521   0.073751  -0.009592
     13      -0.068731  -0.006981   0.032428  -0.002245  -0.007273   0.010619
     14       0.032849   0.004602  -0.017362  -0.001927  -0.034510  -0.024003
     15      -0.023405  -0.003489  -0.019000   0.008468   0.001915  -0.086219
     16      -0.034563  -0.005392   0.048053  -0.000267   0.086395   0.087020
     17       0.058105   0.006128  -0.045514   0.004307   0.003077  -0.029443
     18       0.027281   0.006986  -0.109760  -0.003467  -0.045050   0.206317
     19      -0.037461  -0.002140  -0.152050   0.020361  -0.010437  -0.083373
     20       0.066167   0.003915  -0.012811   0.022038   0.235204  -0.006288
     21       0.015427   0.003493   0.001968  -0.008989  -0.017255   0.114873
     22      -0.042757  -0.003748  -0.080451   0.008195  -0.024618  -0.052484
     23       0.071444   0.004361  -0.007090   0.013106   0.182040   0.017384
     24       0.026735   0.008053  -0.038895  -0.017690  -0.078599   0.209276
     25      -0.013741  -0.007853  -0.035263   0.028727   0.063562  -0.144256
     26      -0.007168   0.006611  -0.009424  -0.010290  -0.021687   0.003066
     27       0.008664   0.002210   0.018387  -0.007714  -0.001449  -0.003111
     28       0.008696  -0.000021   0.010927   0.001519   0.003491  -0.017618
     29       0.002814  -0.033113   0.012826   0.078033  -0.061223   0.053903
     30       0.011850  -0.001361   0.090299  -0.010291   0.010740  -0.023308
     31       0.006582  -0.000259   0.015043   0.001752   0.012436  -0.029697
     32      -0.004366   0.000021  -0.002120   0.016950  -0.035052   0.032221
     33      -0.000559   0.000612   0.018080  -0.005620   0.002803   0.078568
     34      -0.045353  -0.007240   0.062058  -0.001740   0.070428   0.035295
     35       0.021223   0.004585  -0.048449   0.002279  -0.032735  -0.031903
     36       0.006905   0.000411   0.022160  -0.001134  -0.000487  -0.032935
     37       0.012623   0.002617   0.066730  -0.014416  -0.028853   0.036990
     38       0.003445  -0.016959   0.003925   0.024385  -0.026492   0.027469
     39       0.022939  -0.001592   0.137811  -0.007733   0.000393  -0.099264
     40       0.002212   0.000950   0.020513  -0.004127  -0.001117   0.028517
     41       0.008594   0.003239   0.023851  -0.028776   0.026560  -0.035695
     42      -0.007055  -0.000623  -0.000357  -0.000820  -0.024365   0.003217
     43       0.027847   0.002870   0.003090  -0.002044   0.035049   0.079832
     44      -0.044868  -0.003714  -0.002126   0.000449  -0.043732  -0.078710
     45      -0.011859  -0.001239   0.001626   0.001003   0.025640   0.025112
     46      -0.040580  -0.006404   0.081804  -0.006188   0.095882   0.137194
     47       0.021354   0.005354  -0.045407  -0.001746  -0.079494  -0.042308
     48       0.029480  -0.006683   0.124274  -0.004578  -0.010305  -0.089991
     49       0.007687   0.000522   0.058431  -0.011697  -0.024817   0.045613
     50      -0.005627   0.043656   0.010723  -0.023771   0.015167  -0.028611
     51       0.026288  -0.002195   0.161011  -0.012419  -0.006499  -0.106429
     52       0.013252   0.000983   0.112005  -0.018754  -0.024139   0.027650
     53       0.003448   0.009020   0.026153  -0.011345   0.012651  -0.029844
     54      -0.007371  -0.000963  -0.010679   0.002527  -0.020378  -0.035396
     55       0.010544   0.003125  -0.029006  -0.000972  -0.064142  -0.068858
     56      -0.035654  -0.003877   0.027702  -0.003714  -0.016359   0.025242
     57      -0.009613  -0.000190  -0.015476   0.001351  -0.015099  -0.011309
     58       0.045052   0.008170  -0.060681  -0.002131  -0.098620  -0.027551
     59      -0.043712  -0.005344   0.063375  -0.007691   0.016973   0.072807
     60      -0.020051  -0.002059  -0.023994   0.005387  -0.036553  -0.089838
     61       0.024782   0.005731  -0.054409  -0.000894  -0.109315  -0.106256
     62      -0.028139  -0.003940   0.052765  -0.006181   0.028528   0.104120
     63       0.048320   0.007502  -0.116705  -0.011242  -0.090035   0.330225
     64      -0.109333  -0.005007  -0.175495   0.003653  -0.219337  -0.081488
     65       0.082794   0.004664  -0.012683   0.024128   0.265206   0.016600
     66       0.012340   0.002185   0.009155  -0.009031   0.025115   0.119836
     67      -0.109335  -0.007635  -0.100084  -0.012220  -0.255787  -0.070624
     68       0.082891   0.004814  -0.001166   0.017075   0.232068   0.017089
     69      -0.015804   0.009421   0.000336  -0.057559  -0.385849   0.354701
     70       0.040106  -0.045451   0.007218   0.135910   0.231540  -0.169420
     71      -0.036576   0.024705  -0.026136  -0.064793  -0.129419   0.029014
     72       0.088670   0.011498   0.013800  -0.007055   0.089394   0.231595
     73      -0.036527   0.022304  -0.039016  -0.058952  -0.082873  -0.056465
     74      -0.065404   0.035745  -0.043980  -0.105344  -0.263231   0.079820
     75       0.024567   0.009143   0.123930   0.006747   0.011055  -0.161304
     76       0.004702   0.001325   0.014632   0.000799   0.006791  -0.011284
     77       0.025478  -0.089205   0.012659  -0.079499   0.060420  -0.081965
     78      -0.014636  -0.001752  -0.003793   0.000883  -0.045585  -0.032889
     79       0.038342   0.004246   0.003575  -0.003118   0.068563   0.194940
     80      -0.042849  -0.003302   0.002371  -0.000806  -0.040961  -0.111414
     81      -0.113229  -0.009719  -0.095212  -0.000285  -0.100228  -0.173515
     82      -0.022450  -0.000068  -0.188549   0.023731  -0.014700  -0.005388
     83      -0.108758  -0.015234  -0.091741   0.035341  -0.010724  -0.120471
     84      -0.024455  -0.003268  -0.007779   0.007017   0.060571  -0.013507
     85      -0.087308  -0.012685   0.127433  -0.006941   0.157942   0.213686
     86       0.053360   0.009562  -0.085547   0.001287  -0.115115  -0.118718
     87       0.031531  -0.018044   0.128246   0.007248  -0.014927  -0.086369
     88      -0.005985  -0.001080  -0.047874   0.000403  -0.025757   0.115700
     89      -0.026945   0.144409  -0.034822  -0.128198   0.058796  -0.064252
     90      -0.000335   0.001186  -0.014603   0.000257   0.007692   0.034042
     91       0.055216   0.010514  -0.088237  -0.000425  -0.125569  -0.008274
     92      -0.059888  -0.008245   0.078855  -0.007419   0.009558   0.012025
     93      -0.050982   0.021014  -0.211795  -0.100746   0.077132  -0.105119
     94      -0.072504   0.006278  -0.243584   0.001593   0.052457  -0.043413
     95       0.057913  -0.169400   0.432937   0.912280  -0.247436   0.153194
     96      -0.020549  -0.108083  -0.114037  -0.047418  -0.067662   0.211602
     97       0.019706  -0.011819   0.139952  -0.025747  -0.029397   0.019018
     98      -0.128282   0.951017   0.181215   0.255703  -0.027029   0.047218
     99       0.094390   0.007659  -0.039080   0.010428   0.108471  -0.016966
    100       0.552174   0.060316  -0.222007  -0.010497  -0.214808  -0.113806
    101      -0.451287  -0.046873   0.176888  -0.001444   0.035548   0.059330
    102       0.007984   0.000860  -0.026148   0.000846  -0.089288  -0.096262
    103       0.460678   0.040843  -0.157652   0.002295  -0.006736  -0.031547
    104      -0.285874  -0.027117   0.092287   0.008750   0.134511   0.053130
                 30         31         32         33         34         35    
      0      -0.022559  -0.051315  -0.099780  -0.109831  -0.053135   0.028646
      1       0.001557  -0.085292   0.228505  -0.031232  -0.099789   0.217132
      2       0.006871   0.021413  -0.029853  -0.003670  -0.008348  -0.041409
      3      -0.004625   0.000459  -0.005805  -0.165912   0.071706  -0.082046
      4      -0.004025   0.105823  -0.052595  -0.052772   0.090650  -0.120965
      5      -0.000250  -0.030873   0.011840   0.019021   0.003441   0.018099
      6       0.015636  -0.010678   0.026983   0.053344  -0.097876   0.122132
      7      -0.002669  -0.032161   0.195876  -0.025242   0.054111  -0.255535
      8       0.003602   0.003536   0.002143   0.006312  -0.016381   0.006751
      9      -0.008776   0.003582  -0.069704  -0.112711   0.108982   0.010784
     10       0.012776  -0.026373   0.012553  -0.147528   0.039475   0.078717
     11      -0.001656  -0.001288   0.000513  -0.018283   0.014706   0.004038
     12      -0.009731  -0.159765  -0.026526   0.067664   0.083754  -0.017712
     13       0.063866   0.075035   0.021537  -0.037524   0.040524   0.122563
     14      -0.028231   0.099162   0.041973  -0.013755   0.097975   0.161399
     15       0.036935   0.107685   0.037221   0.024553   0.163137   0.097927
     16       0.025582  -0.066376   0.001599   0.018592   0.017147   0.032353
     17      -0.046624  -0.092422  -0.009367   0.007067   0.027793   0.060100
     18      -0.022812   0.030084   0.084016  -0.008096   0.019182   0.039171
     19       0.017020   0.007901  -0.091793  -0.074837   0.086565  -0.106519
     20      -0.010033   0.093271  -0.005665  -0.081286  -0.047977  -0.044764
     21      -0.028014  -0.038158   0.009126  -0.098856  -0.188570   0.021849
     22      -0.001270  -0.099899   0.053536  -0.060703   0.014683   0.107438
     23      -0.009263   0.021451   0.058584   0.005053   0.032529   0.084397
     24      -0.020434   0.051260   0.066055   0.129256   0.020787   0.071347
     25       0.027167   0.068006  -0.160800   0.167749  -0.060870  -0.080584
     26       0.002268   0.001652  -0.007643   0.018120  -0.011909   0.000764
     27       0.003849   0.058319  -0.138892   0.088733   0.030264   0.021085
     28       0.012568   0.053673  -0.021413   0.207413  -0.090817  -0.002136
     29      -0.005683  -0.006373  -0.011252   0.011685   0.014426   0.003357
     30      -0.008031  -0.025087  -0.103707  -0.081037  -0.037675   0.046778
     31       0.008651   0.007230   0.026162   0.128238  -0.161966   0.106366
     32      -0.002442  -0.007133   0.033001  -0.030694  -0.005479   0.012145
     33      -0.034850  -0.085397  -0.027835  -0.032516  -0.164665  -0.060043
     34      -0.066884  -0.073878  -0.030702   0.025887   0.018986  -0.019777
     35       0.030836  -0.141606  -0.027671   0.095880   0.122290  -0.038774
     36       0.012170   0.065708  -0.133872   0.129790   0.031475   0.047440
     37      -0.001822   0.012539   0.067579   0.026250   0.088767  -0.176652
     38      -0.003585  -0.003189  -0.005714   0.015821   0.028896   0.016145
     39       0.020542  -0.018404   0.154676  -0.019115  -0.015390  -0.056620
     40      -0.008844   0.006731  -0.141582   0.056902  -0.141274   0.188573
     41       0.003448  -0.000799  -0.000628   0.002944  -0.001916  -0.004889
     42       0.021145   0.021896  -0.024006  -0.003949  -0.128871  -0.187802
     43       0.122766  -0.040159   0.003878   0.077139   0.099643  -0.022264
     44      -0.090379  -0.061840  -0.039552   0.039008   0.045141  -0.062016
     45      -0.028520  -0.101200  -0.008847   0.028503   0.014251   0.065842
     46      -0.104143  -0.026819   0.009420   0.091684   0.023301  -0.114223
     47       0.044506  -0.178264  -0.084245   0.014290  -0.076385  -0.143291
     48       0.030567   0.059442   0.086899   0.167976   0.061295  -0.143375
     49      -0.010113   0.011558  -0.097101  -0.033813   0.082453  -0.008184
     50       0.006174   0.013148   0.005303   0.022271   0.001051  -0.019638
     51       0.025055  -0.006774   0.156670  -0.022913   0.020678  -0.074769
     52      -0.012499  -0.018174  -0.119592  -0.147145   0.058665   0.100885
     53       0.004113  -0.000613  -0.000260  -0.000163  -0.001425  -0.012482
     54      -0.008779   0.058002  -0.004581  -0.006440  -0.086018  -0.137382
     55      -0.180867   0.120981   0.045169   0.005209   0.053769   0.058983
     56       0.159687   0.104807   0.014367  -0.057737  -0.015891   0.066898
     57       0.013189  -0.040411  -0.004238  -0.001904  -0.015191   0.063738
     58       0.161281  -0.015463  -0.033483  -0.072367  -0.152989  -0.074877
     59      -0.118655   0.085172   0.018073  -0.023342  -0.145602  -0.099650
     60       0.011630   0.127727   0.028270  -0.004198   0.063815   0.038051
     61      -0.170337   0.046381  -0.007132  -0.055907  -0.113525  -0.042079
     62       0.133682   0.087504   0.018879  -0.036113  -0.094816  -0.047945
     63      -0.039571   0.033002   0.166144   0.024489   0.096988   0.108317
     64       0.031059  -0.038219  -0.151945  -0.095745   0.107416  -0.202950
     65      -0.015996   0.102487   0.020666  -0.073032  -0.033794  -0.015500
     66      -0.030609   0.046263   0.061688  -0.189009  -0.368376   0.037211
     67       0.020177  -0.196963   0.087777  -0.007363   0.037171   0.162858
     68      -0.012694   0.055733   0.064453  -0.022365  -0.010230   0.078365
     69      -0.022055  -0.032173   0.158147   0.367457   0.061815   0.234352
     70       0.019755   0.134999  -0.219999   0.072786  -0.141187  -0.167443
     71       0.005485  -0.038460   0.030156   0.083344   0.031103   0.057471
     72      -0.030651   0.124010   0.100528   0.153316  -0.148398   0.082405
     73       0.025417   0.021527  -0.058380   0.298706  -0.054229   0.034803
     74       0.006157  -0.086431   0.080719   0.139320   0.086049   0.115208
     75       0.046193   0.014485   0.304669   0.186624  -0.121356  -0.113706
     76       0.006708   0.026862  -0.055103   0.176824  -0.201201   0.156691
     77       0.010831   0.017551  -0.010835   0.057301  -0.011071  -0.015173
     78       0.086836   0.177111   0.011468  -0.049129  -0.121487  -0.142903
     79       0.445360  -0.196363  -0.023588   0.101746   0.111858  -0.044455
     80      -0.370686  -0.132403  -0.061684   0.070588   0.030227  -0.092039
     81       0.016765  -0.132172  -0.033183  -0.138879   0.077607  -0.037419
     82       0.007011   0.018932  -0.062777  -0.094964   0.105954  -0.109371
     83       0.004887  -0.096134   0.012968  -0.070376   0.022916   0.012143
     84      -0.028467  -0.198613  -0.020941   0.135724   0.242061   0.121674
     85      -0.083186  -0.018693   0.044945   0.154282   0.129662  -0.108810
     86       0.028779  -0.222796  -0.117498   0.007667  -0.071472  -0.128341
     87       0.029865   0.058082   0.080966   0.169348   0.063573  -0.136953
     88      -0.022056   0.069381  -0.338308   0.102293   0.078166   0.112999
     89       0.012569   0.030995   0.014185   0.015782  -0.022886  -0.026918
     90       0.025117  -0.219650  -0.049845   0.046327  -0.017109   0.019032
     91       0.539705   0.021929  -0.029629  -0.115327  -0.136351  -0.042283
     92      -0.359519   0.250678   0.063661  -0.046612  -0.150665  -0.072796
     93       0.016726   0.002212  -0.004293   0.062338  -0.082770   0.119345
     94       0.003555  -0.105438   0.391214  -0.079937  -0.104400  -0.205270
     95      -0.009490  -0.024087   0.034803  -0.010246   0.001575   0.018634
     96      -0.039583   0.018919  -0.264460  -0.153495   0.185665   0.052571
     97      -0.010350  -0.015411  -0.133674  -0.181014   0.100105   0.110545
     98      -0.008121  -0.000019  -0.042069  -0.016506   0.036789   0.014951
     99      -0.031197  -0.282735  -0.032918   0.123143   0.238859   0.103778
    100       0.002717   0.170076   0.021159  -0.077051  -0.080893   0.025156
    101       0.039258   0.226902   0.053241  -0.073258  -0.054488   0.049021
    102       0.049808   0.266842   0.041165  -0.043506  -0.032781  -0.067306
    103      -0.056418  -0.149047  -0.006875   0.049189   0.111113   0.112212
    104      -0.003205  -0.162176  -0.006366   0.041684   0.125805   0.140574
                 36         37         38         39         40         41    
      0      -0.120167   0.003732   0.046978   0.006557  -0.120167  -0.305229
      1       0.117501  -0.012939   0.129855   0.017991  -0.149016   0.122020
      2      -0.011908   0.077382  -0.012228   0.023060   0.007345  -0.009260
      3       0.022109   0.007953  -0.031863  -0.005477   0.042836   0.006104
      4       0.017213   0.008444  -0.069826  -0.007730   0.099197  -0.015221
      5       0.003391   0.003960  -0.003877   0.002532   0.003745  -0.012080
      6       0.098772   0.016472  -0.063676  -0.013195   0.082915   0.027653
      7      -0.180794   0.005022   0.022544   0.003239  -0.054833  -0.114912
      8       0.009990  -0.056026  -0.018044   0.049154   0.008909  -0.003762
      9       0.083360  -0.003261  -0.011477   0.006100   0.038477   0.111104
     10       0.162867   0.013120  -0.095341  -0.006912   0.132015   0.061603
     11       0.019889  -0.022710   0.002720  -0.067926   0.005397   0.006985
     12       0.047158  -0.000510   0.034864   0.003497   0.017309  -0.019446
     13      -0.146803  -0.009634   0.003873  -0.002927   0.054260  -0.015839
     14      -0.136835  -0.004398  -0.073161  -0.004545  -0.001400  -0.043292
     15       0.035283   0.003788   0.069186   0.010983   0.014367  -0.122660
     16      -0.053913  -0.001720  -0.062623  -0.005869  -0.015730   0.036783
     17      -0.102614  -0.007569  -0.029387  -0.005660   0.018957   0.040760
     18       0.047228   0.014517  -0.004134   0.008419   0.075123  -0.039602
     19      -0.007017  -0.000472  -0.056430  -0.009751  -0.019555   0.014541
     20      -0.018416  -0.008861   0.058690  -0.002631   0.015630   0.044445
     21      -0.111406   0.000798  -0.033487  -0.001409  -0.041173  -0.049434
     22       0.010420   0.012565   0.116054   0.019293  -0.129618   0.002754
     23       0.049375   0.016474   0.090672   0.010282  -0.058781  -0.032117
     24       0.024251   0.002210   0.071143   0.011479   0.063316  -0.023364
     25      -0.080512  -0.008794  -0.074353  -0.013024   0.016648  -0.057282
     26      -0.004510  -0.001077  -0.005462   0.004252  -0.007068   0.000019
     27      -0.023789  -0.019764   0.070547  -0.000295  -0.078964   0.035065
     28      -0.043368  -0.002369  -0.028824  -0.006231   0.043440  -0.025380
     29      -0.009152   0.004561  -0.007213   0.047624  -0.002926  -0.027263
     30      -0.062410   0.048551   0.025935   0.013218  -0.093590  -0.218201
     31       0.022746   0.024217  -0.058183  -0.002553   0.066642  -0.081426
     32       0.054290  -0.333512  -0.023755  -0.054045   0.012099  -0.065871
     33      -0.098697  -0.008522  -0.057805  -0.011702   0.016348   0.088272
     34      -0.078927  -0.023775   0.255704   0.006588   0.215930   0.006236
     35       0.144925   0.014282  -0.137797   0.000922  -0.109015  -0.069846
     36       0.011607  -0.070504   0.089563   0.015065  -0.107108   0.160454
     37      -0.125340  -0.022007   0.077077   0.006471  -0.096372   0.038656
     38      -0.015027   0.305192   0.058806  -0.116773  -0.005795   0.067962
     39       0.000467   0.010841  -0.055134   0.007959   0.048979  -0.076628
     40       0.044748   0.011973  -0.037495  -0.001418   0.031396  -0.144099
     41      -0.005849   0.025484   0.003814  -0.092872  -0.004536  -0.028922
     42       0.179570   0.008989   0.038580   0.004555  -0.014140   0.002555
     43       0.098911   0.005867  -0.014519   0.003636   0.023453  -0.046043
     44       0.061031  -0.005912   0.086101   0.006632   0.054826  -0.067450
     45      -0.183637  -0.013792  -0.147031  -0.019860   0.010308   0.172943
     46       0.177327   0.010497  -0.044555   0.002290   0.003210  -0.027448
     47       0.047354  -0.008523   0.075539   0.001628   0.050958  -0.013804
     48      -0.070077  -0.024195   0.061133   0.006698  -0.067287   0.175720
     49      -0.014613  -0.020768   0.086064   0.007242  -0.104920   0.105936
     50      -0.003937  -0.041147   0.010733  -0.074481  -0.016540   0.012141
     51       0.036483   0.009380  -0.075537  -0.053040   0.095437  -0.008278
     52       0.104061  -0.003141  -0.002050  -0.006337   0.009368   0.052445
     53      -0.018518   0.040391  -0.048996   0.403485   0.029359   0.032259
     54       0.171905   0.011162   0.042396   0.006385  -0.041938  -0.005421
     55       0.022272   0.012058  -0.153931  -0.003206  -0.152950  -0.048100
     56      -0.107595  -0.011175   0.092959   0.000811   0.115883   0.020087
     57      -0.185372  -0.013181  -0.135346  -0.020076  -0.002584   0.207579
     58      -0.011148  -0.002328   0.046313  -0.001312  -0.001134   0.070012
     59       0.060858   0.007413  -0.073118  -0.006564  -0.063945   0.120175
     60       0.038317   0.003229   0.053287   0.006655   0.006666  -0.043462
     61      -0.030782  -0.007281   0.075372  -0.000448   0.071686   0.073887
     62       0.057427   0.011935  -0.068755  -0.002174  -0.108301   0.034455
     63       0.121045   0.032676   0.038480   0.016043   0.141802  -0.089706
     64      -0.036167   0.003593  -0.202396  -0.019647   0.027260   0.017050
     65       0.002339  -0.006391   0.092720   0.000543   0.019844   0.033835
     66      -0.178677   0.006440   0.044642   0.001414  -0.028409   0.047433
     67       0.054168   0.060788   0.061701   0.038275  -0.211078  -0.027019
     68       0.030450   0.009963   0.117601   0.008140  -0.045187  -0.007649
     69       0.094314   0.031552   0.042116   0.024739   0.145197  -0.166867
     70      -0.163408  -0.033490  -0.061689   0.068179  -0.023075  -0.002605
     71       0.042443   0.012012  -0.013821  -0.033358   0.019463  -0.039667
     72      -0.023712   0.004155   0.091475   0.006087   0.118645  -0.036657
     73      -0.012431   0.021209  -0.084014  -0.070145   0.097957  -0.143136
     74       0.093671   0.025303  -0.026584  -0.051618   0.048299  -0.082732
     75      -0.028792  -0.042976  -0.141486   0.065494   0.158642  -0.112594
     76       0.029769   0.014808  -0.083489  -0.001235   0.096114  -0.153932
     77      -0.052007   0.567529   0.097651  -0.620637  -0.044025   0.067414
     78       0.201159   0.015073   0.048732   0.008417  -0.059554  -0.017380
     79       0.135965   0.006418  -0.130942  -0.000479  -0.053452  -0.046292
     80       0.005613  -0.013395   0.149175   0.004912   0.154129  -0.050377
     81       0.005330   0.003470  -0.042928  -0.003978  -0.085089   0.007829
     82       0.012276   0.007925  -0.078314  -0.008911   0.012253  -0.003230
     83       0.005073   0.005498  -0.009184  -0.000286  -0.068051   0.008149
     84      -0.150119  -0.016950  -0.150320  -0.016169   0.038954   0.086172
     85       0.354795   0.041937  -0.379245  -0.002009  -0.366955  -0.125997
     86      -0.076616  -0.034432   0.338051   0.006411   0.353141   0.032497
     87      -0.073457   0.038493   0.062109   0.066714  -0.062901   0.196794
     88      -0.034181  -0.051540   0.243672   0.025894  -0.295529   0.268167
     89       0.063014  -0.600630   0.007302  -0.605013  -0.057249  -0.120168
     90      -0.221084  -0.020717  -0.210997  -0.029362   0.008151   0.257384
     91       0.064241   0.018986  -0.090112   0.001503  -0.273328  -0.036355
     92       0.055454   0.002515   0.090145   0.001662   0.089932   0.130793
     93       0.089852   0.026813  -0.042029   0.003316   0.057173   0.058052
     94      -0.109375   0.051465  -0.171822   0.000589   0.179350  -0.321429
     95       0.037137  -0.167194  -0.012612  -0.066270   0.003606  -0.032735
     96       0.069805  -0.053397   0.099619   0.014120  -0.092383   0.212539
     97       0.154677  -0.008487  -0.012351  -0.002250   0.037217   0.143052
     98       0.000284   0.176012   0.040817  -0.082385  -0.014065   0.051832
     99      -0.061195  -0.008967   0.010145   0.001443   0.059020  -0.064135
    100      -0.045862   0.000514   0.000987  -0.001474   0.007734   0.018882
    101      -0.046797   0.001544  -0.038816  -0.002698  -0.034071   0.001088
    102       0.200307   0.017130   0.117854   0.016599  -0.045068  -0.084460
    103      -0.130216  -0.006589  -0.096079  -0.008037  -0.008948   0.009620
    104      -0.181020  -0.014751  -0.043099  -0.008201   0.062035   0.022455
                 42         43         44         45         46         47    
      0       0.025889  -0.045987  -0.061445   0.005841   0.008920   0.021900
      1      -0.019285  -0.012123   0.039287  -0.000294   0.000360   0.013840
      2      -0.036312   0.004173   0.018237  -0.014213  -0.023413  -0.004997
      3       0.006346   0.006638   0.011592  -0.000855  -0.002226  -0.008194
      4      -0.000327   0.012860  -0.000345  -0.000006  -0.000734  -0.006632
      5      -0.007218   0.000114  -0.009819   0.000126   0.000094   0.001720
      6       0.004744   0.011742   0.005348  -0.004115  -0.000459  -0.003356
      7       0.002808  -0.015662  -0.018392   0.000503   0.001408   0.005512
      8      -0.042235   0.005854  -0.001429   0.026961  -0.000800   0.000720
      9      -0.011494   0.015138  -0.007421  -0.001813   0.004232   0.002586
     10      -0.011966   0.021987  -0.018152   0.000102   0.001267   0.001990
     11       0.016062  -0.000055  -0.001523   0.015990  -0.031001  -0.001660
     12      -0.000524  -0.000835  -0.038245   0.001307   0.001697  -0.013083
     13      -0.006378  -0.019838   0.100073  -0.002653  -0.002737   0.014903
     14      -0.001440   0.031019   0.133097  -0.003402  -0.003701   0.026189
     15      -0.002725   0.012675  -0.058332   0.005255   0.012138  -0.114882
     16       0.004416   0.031083   0.002105  -0.000814  -0.002821   0.039987
     17      -0.002311  -0.025041   0.005234  -0.000618  -0.001233   0.001086
     18      -0.025178   0.014033  -0.004546  -0.000109  -0.000280  -0.000982
     19       0.015119  -0.018997  -0.016300   0.001045   0.000109   0.014561
     20       0.012703   0.025259   0.072415  -0.003344  -0.003079  -0.030720
     21      -0.007506   0.000580   0.147529  -0.002357   0.001874  -0.038476
     22      -0.018849  -0.010957  -0.042487  -0.003380  -0.005165   0.004437
     23       0.021995  -0.028008  -0.154972   0.001821  -0.000693   0.056048
     24      -0.028293   0.032616  -0.045766   0.000042   0.002511  -0.000063
     25       0.022023  -0.013479  -0.093436   0.006059   0.013550   0.041896
     26      -0.055920   0.006178   0.039843  -0.002526  -0.000428  -0.014140
     27       0.031689  -0.012444  -0.002455   0.001390   0.002289   0.004250
     28       0.012365   0.007160  -0.005288   0.000476   0.002062  -0.001845
     29      -0.273360   0.029146  -0.043711  -0.000930  -0.008510   0.010783
     30      -0.016588  -0.037439  -0.040560  -0.003997  -0.008694   0.016281
     31       0.000359   0.004080   0.039458  -0.003694  -0.007734  -0.020238
     32       0.277240  -0.034671   0.015220   0.056010   0.096803   0.004104
     33       0.001927   0.025446   0.074608  -0.001201   0.001184  -0.026488
     34       0.015036   0.190143  -0.038793   0.000709   0.001525  -0.040195
     35      -0.014320  -0.126119   0.022366   0.000292   0.000054   0.020891
     36      -0.023232  -0.001378   0.038957   0.009346  -0.002505  -0.005215
     37       0.001137  -0.007792   0.019252   0.000714  -0.000949  -0.003160
     38       0.300080  -0.031798   0.026517  -0.090105   0.000404  -0.007855
     39       0.010198  -0.004119  -0.012518   0.006645   0.023786   0.005570
     40       0.021524  -0.011906   0.037467  -0.000663  -0.004256  -0.024182
     41      -0.071946   0.005109  -0.024558  -0.047851  -0.177914  -0.009081
     42      -0.001847  -0.009715   0.148455  -0.007246  -0.013107   0.119948
     43      -0.013963  -0.072362   0.048507  -0.001492  -0.002411   0.008184
     44       0.002516   0.078393   0.097284  -0.003400  -0.005788   0.051165
     45       0.001550  -0.020852  -0.037079  -0.000508  -0.003775   0.040112
     46      -0.017638  -0.120226   0.019387   0.001590   0.003241   0.010228
     47       0.007013   0.115213   0.043527   0.001185   0.007276  -0.119219
     48       0.022932   0.002680   0.069246  -0.022921  -0.002576  -0.021749
     49       0.003553  -0.007966   0.028638  -0.004228  -0.000736  -0.001583
     50      -0.082138   0.009195   0.014266   0.175184  -0.049261  -0.002473
     51      -0.008044   0.011899  -0.005519   0.008406  -0.014466  -0.004090
     52      -0.004183   0.002705  -0.006163   0.001828  -0.000510   0.004675
     53       0.027138   0.000120   0.001830  -0.075476   0.111230   0.005659
     54       0.005001   0.024538   0.042808  -0.003460  -0.007254   0.076079
     55       0.028827   0.254672   0.020092  -0.000685  -0.001961   0.031599
     56      -0.022242  -0.186210   0.039423  -0.001671  -0.002700   0.013261
     57       0.007028  -0.004144  -0.147531   0.002773   0.000227   0.012653
     58       0.013944   0.084172  -0.153254   0.004742   0.003732   0.045551
     59      -0.000574  -0.087592  -0.168961   0.005010   0.008866  -0.126262
     60      -0.003853  -0.032573  -0.031240   0.001238   0.002470  -0.026127
     61      -0.027384  -0.280906  -0.036105   0.000688   0.002975  -0.080573
     62       0.026337   0.184668  -0.119296   0.002809   0.000966   0.043471
     63      -0.000387   0.023767  -0.175058   0.003829  -0.000101   0.044993
     64      -0.016899  -0.021545   0.124589  -0.002064  -0.001974  -0.035762
     65       0.022598   0.027568   0.013063  -0.002041  -0.002361  -0.012573
     66      -0.002770   0.060382   0.293806  -0.008576  -0.002472  -0.072734
     67      -0.077006  -0.058869  -0.026853  -0.010510  -0.015077   0.026302
     68       0.032686  -0.009775  -0.126982   0.001627  -0.000203   0.047957
     69      -0.085353   0.028349  -0.334233   0.005118   0.012306   0.093006
     70      -0.316605   0.042562   0.084605  -0.003186   0.006785  -0.024613
     71       0.101116  -0.021148  -0.073103   0.002647   0.004012   0.026693
     72      -0.005695   0.067517   0.099833  -0.003142   0.000419  -0.061955
     73       0.257095  -0.039906  -0.241121   0.013889   0.019917   0.089521
     74       0.174961  -0.039580  -0.191564   0.007850   0.007498   0.068114
     75       0.072729   0.004448   0.027565  -0.037626  -0.118488  -0.036019
     76       0.029235  -0.002328   0.069597  -0.005862  -0.017886  -0.044888
     77      -0.519277   0.063102   0.105467   0.279799   0.926815   0.053298
     78      -0.002907  -0.072116   0.175149  -0.010619  -0.022173   0.220048
     79      -0.053671  -0.472541   0.156493  -0.001956   0.002303  -0.018231
     80       0.029231   0.403956   0.005251   0.000436   0.000964  -0.040440
     81       0.011623  -0.038070  -0.030516   0.001861  -0.001802   0.022226
     82       0.011453  -0.018224  -0.033259   0.001862  -0.000041   0.017445
     83       0.010201  -0.025575  -0.039146   0.001653   0.001114   0.024175
     84      -0.003280   0.007197   0.105680  -0.005781  -0.011272   0.064224
     85      -0.007154  -0.055413   0.229157  -0.004625   0.013208  -0.495539
     86      -0.002914   0.076023  -0.071867   0.004231  -0.003077   0.283434
     87       0.065768  -0.000787   0.081492   0.101236  -0.036589  -0.023457
     88       0.025521  -0.025632   0.100990   0.014146  -0.009835  -0.012066
     89      -0.460787   0.043349  -0.076480  -0.921997   0.249381   0.007697
     90       0.008332   0.040761  -0.033499  -0.000292  -0.000926  -0.048788
     91       0.049470   0.351692  -0.059534   0.000876   0.017778  -0.585590
     92      -0.023446  -0.296083  -0.349597   0.010824   0.002128   0.314505
     93       0.009454   0.009482   0.015109   0.004710  -0.004102  -0.004728
     94      -0.018123   0.006379  -0.081586   0.009424   0.005113   0.012513
     95      -0.057620   0.005411  -0.016372  -0.042714   0.021596   0.004329
     96      -0.010228   0.005006   0.009764  -0.007587  -0.002320   0.006337
     97      -0.011205   0.015271  -0.005220  -0.000165   0.000918   0.005377
     98       0.019165  -0.000569   0.013007   0.067557   0.027329   0.003452
     99      -0.005510   0.004378  -0.027440   0.003422   0.007831  -0.081783
    100      -0.009433  -0.080886   0.098184  -0.004169  -0.008309   0.084759
    101       0.007435   0.059390   0.124695  -0.005754  -0.009616   0.085434
    102       0.003003  -0.000772  -0.166879   0.006745   0.012227  -0.103270
    103       0.007005   0.088633   0.057323  -0.001659  -0.002576   0.002941
    104      -0.008693  -0.051081   0.055265  -0.001103  -0.001054   0.011568
                 48         49         50         51         52         53    
      0      -0.022258  -0.004575   0.000380  -0.007934  -0.001530   0.034000
      1      -0.005689   0.053069   0.018262   0.008453  -0.006168  -0.072998
      2       0.008222   0.004095  -0.000256  -0.010207  -0.002445  -0.030007
      3       0.027284  -0.065336  -0.005345   0.012735   0.003731   0.002375
      4       0.016148  -0.053170  -0.005273   0.010706   0.004249  -0.003424
      5      -0.002247  -0.006369  -0.000176   0.005688   0.001127   0.007948
      6      -0.001347   0.008876   0.001077   0.013462   0.001917   0.028274
      7      -0.002210  -0.011711  -0.001966  -0.017288  -0.002136  -0.033025
      8      -0.000851  -0.003241  -0.000045   0.004294   0.000682   0.002880
      9      -0.024757   0.049101   0.002571   0.009498   0.001458   0.032685
     10      -0.029269   0.049480   0.000068   0.003251   0.001331   0.039543
     11      -0.003298   0.009616   0.000345  -0.000187   0.000006   0.004208
     12       0.007334  -0.007835  -0.004649  -0.022964  -0.001734   0.042278
     13      -0.013270   0.013657   0.023629   0.031969   0.006114  -0.055781
     14      -0.007354   0.028042   0.003711   0.045746   0.001566  -0.068502
     15       0.111777   0.088890   0.012329   0.036917   0.001182  -0.014430
     16      -0.007168  -0.013611  -0.002465  -0.012106   0.004092   0.004352
     17      -0.024081  -0.017737  -0.003198  -0.007421  -0.003573   0.003151
     18      -0.001360   0.011758   0.002362   0.002623  -0.003506   0.054066
     19       0.007657  -0.019349   0.009050   0.005674  -0.005196  -0.045790
     20       0.008935   0.035293  -0.022714  -0.067811  -0.002558  -0.013937
     21       0.055661   0.111796   0.033615   0.080048   0.002910   0.204621
     22      -0.037175   0.021999  -0.017578  -0.058087   0.002941   0.069481
     23      -0.064264  -0.072979   0.010532   0.127382   0.017092   0.006472
     24      -0.064344   0.089964  -0.025272  -0.124556  -0.011037  -0.090943
     25      -0.125203   0.212975   0.025032   0.065309   0.004435   0.029895
     26       0.008930   0.065493  -0.001969  -0.115610  -0.017862  -0.000577
     27      -0.007976   0.016516  -0.002116  -0.043697  -0.006361  -0.091203
     28      -0.016206   0.037153   0.000806   0.009637   0.002144   0.049204
     29      -0.005161  -0.051554   0.000123   0.061491   0.009383  -0.000315
     30      -0.001272  -0.031873  -0.001290  -0.030700  -0.005322  -0.089632
     31       0.062710  -0.105224  -0.007709  -0.008953  -0.000094   0.005241
     32      -0.000326  -0.001228  -0.002771  -0.032280  -0.003713  -0.012508
     33       0.023366   0.062493   0.021322   0.098538   0.009714  -0.039225
     34      -0.048711  -0.052191  -0.058176   0.002353   0.009998   0.014550
     35       0.042404   0.027389   0.033213  -0.039027  -0.010927   0.048376
     36       0.029371  -0.037554   0.003478   0.019606   0.001739  -0.023303
     37       0.016799  -0.020181   0.001739   0.010020   0.000967   0.009552
     38       0.006523   0.024439   0.000400  -0.019879  -0.003144  -0.005116
     39      -0.002602  -0.009920  -0.001391  -0.017887  -0.003418  -0.103738
     40       0.102588  -0.215742  -0.019773  -0.040456  -0.001136  -0.021389
     41       0.001169   0.008818   0.001158   0.001486  -0.000250  -0.013871
     42      -0.106490  -0.058681   0.015998   0.003653   0.005342  -0.040745
     43      -0.026685  -0.039974   0.121281  -0.075646   0.019170   0.128655
     44      -0.028844  -0.011293  -0.109535  -0.025553  -0.022102   0.167799
     45      -0.027684  -0.041632  -0.008769  -0.025806  -0.012334   0.000661
     46       0.115924   0.085908   0.032892   0.065116  -0.090523  -0.126930
     47       0.027847   0.061728   0.005620   0.062741   0.074824  -0.186512
     48       0.067832  -0.094503   0.000926   0.045958   0.007485   0.134055
     49       0.017315  -0.010618   0.006154   0.021598   0.000693  -0.026054
     50       0.006089  -0.013796  -0.000015   0.006682   0.001060   0.015475
     51       0.001293  -0.008030  -0.003369  -0.010335  -0.000537  -0.020682
     52      -0.012695   0.023059   0.002937   0.004720  -0.000340  -0.020074
     53      -0.000072  -0.009500  -0.000551   0.002747   0.000555  -0.001938
     54      -0.067854  -0.047108  -0.008603  -0.001890  -0.000252  -0.041205
     55       0.009456   0.011055  -0.048201   0.004475  -0.022024   0.023405
     56      -0.038479  -0.028053   0.031675  -0.017698   0.014884   0.020973
     57      -0.003988  -0.050663  -0.019368  -0.061373   0.005162  -0.036687
     58       0.116223   0.042287  -0.013345  -0.030610   0.075099   0.015029
     59      -0.014626  -0.028745  -0.002551  -0.012359  -0.059204   0.016030
     60       0.006462  -0.000725  -0.003101  -0.012283  -0.000996   0.027861
     61      -0.062553  -0.035167  -0.012541  -0.009094  -0.003685   0.025138
     62       0.048875  -0.001763  -0.000199  -0.026669   0.000153   0.040998
     63      -0.061874  -0.163036   0.003365   0.253437   0.040693   0.076355
     64       0.105264   0.013576   0.005842  -0.149763  -0.031972  -0.047491
     65      -0.020504  -0.005949  -0.021560   0.004661   0.010779  -0.010158
     66       0.057224   0.193317   0.030654   0.177280   0.019401   0.321356
     67      -0.002229   0.065076  -0.001263  -0.168943  -0.031415   0.130816
     68      -0.068846  -0.062940   0.006848   0.163903   0.024239   0.012613
     69      -0.211831   0.021090  -0.006757   0.219845   0.038947  -0.066058
     70      -0.064727   0.377054   0.002165  -0.320534  -0.050466  -0.012304
     71      -0.033545  -0.022220   0.010758   0.104484   0.013584   0.022960
     72      -0.077939   0.357061  -0.056620  -0.440499  -0.046801  -0.022434
     73      -0.204595   0.156430   0.033253   0.324687   0.044958   0.104655
     74      -0.065350  -0.139508   0.022365   0.319864   0.043221   0.037208
     75       0.089246  -0.169802  -0.020768  -0.038726  -0.002008  -0.176240
     76       0.157225  -0.317436  -0.032047  -0.053124  -0.000180  -0.060462
     77       0.013927  -0.118375  -0.010430  -0.006292   0.000447  -0.017242
     78      -0.189622  -0.117674  -0.106330   0.004647  -0.005457  -0.239106
     79       0.108325   0.220275  -0.755359   0.175916  -0.079918   0.244435
     80      -0.024672  -0.111307   0.585438  -0.185696   0.052969   0.321888
     81       0.026249  -0.081751   0.019869   0.073241   0.004401  -0.032826
     82       0.018853  -0.081223   0.015572   0.072388   0.007041  -0.026995
     83       0.001884  -0.040330   0.020491   0.074201   0.005562  -0.009255
     84      -0.140742  -0.111925  -0.032689  -0.093234   0.049174   0.008522
     85      -0.318329  -0.036024  -0.095181  -0.028598   0.609095  -0.143805
     86       0.326775   0.130616   0.095976   0.109377  -0.448931  -0.181276
     87       0.068113  -0.093307   0.000883   0.045738   0.007498   0.138675
     88       0.075449  -0.077991   0.014444   0.069257   0.003938  -0.046602
     89       0.017581  -0.041067   0.001976   0.028411   0.003651   0.018419
     90      -0.069652  -0.055088   0.000525   0.017321  -0.049485  -0.366119
     91      -0.471705  -0.260676   0.028583   0.058911  -0.501334   0.209602
     92       0.413870   0.161774  -0.048495  -0.148265   0.346637   0.236067
     93       0.004911   0.002776   0.001635   0.014487   0.001752   0.016648
     94      -0.057663   0.061727  -0.007086  -0.032709  -0.001781   0.074638
     95       0.000152  -0.018215   0.000806   0.014867   0.002170   0.003187
     96      -0.026861   0.075031   0.011541   0.043601   0.003562   0.068835
     97      -0.032673   0.071893   0.006929   0.029057   0.002961   0.068239
     98      -0.004687   0.009816   0.001271   0.003595   0.000117   0.009562
     99       0.079306   0.055858  -0.001556  -0.000624  -0.002077   0.061820
    100      -0.056974  -0.022753  -0.013298   0.020756   0.010364  -0.074055
    101      -0.085878  -0.040758   0.021651   0.023793  -0.000253  -0.093091
    102       0.084113   0.040868   0.002526  -0.007969  -0.003385   0.083695
    103      -0.021459  -0.005804   0.016580   0.010611  -0.010047  -0.042898
    104       0.011148   0.019155  -0.006999   0.015650   0.009245  -0.045343
                 54         55         56         57         58         59    
      0      -0.008961   0.049829   0.077406  -0.022893  -0.129102   0.096443
      1       0.134405   0.111096  -0.065679   0.061203  -0.093156   0.009091
      2       0.059545   0.050150  -0.014355  -0.003180  -0.040844   0.040037
      3       0.029944   0.036754   0.067863  -0.008661  -0.037286  -0.136379
      4       0.038098   0.024057   0.067567   0.023319  -0.080332  -0.174308
      5       0.011289   0.017793   0.056108   0.025778  -0.019933  -0.103748
      6       0.003998  -0.024175   0.045838  -0.021167  -0.034957   0.030465
      7      -0.037535   0.065764  -0.095485   0.048458   0.085378  -0.087777
      8       0.000729  -0.000926   0.002944  -0.005717  -0.002232   0.001626
      9      -0.058347   0.030932  -0.019625   0.008980   0.001948  -0.012166
     10      -0.091679   0.049582  -0.035866   0.015214   0.006516  -0.018270
     11      -0.008347   0.004084  -0.002580   0.002092   0.000308  -0.001807
     12       0.022141  -0.002103  -0.008121   0.000860   0.001559   0.005155
     13      -0.027924   0.002641   0.008390  -0.001411  -0.003488  -0.005452
     14      -0.034467   0.003193   0.009854  -0.001918  -0.004578  -0.006705
     15      -0.002767   0.001053  -0.009833  -0.000258  -0.010677  -0.006510
     16       0.002418   0.000414   0.002673  -0.000407   0.004302   0.001661
     17       0.002851   0.000507   0.002160   0.000153   0.004083   0.001761
     18       0.044166   0.047756   0.079989   0.129673   0.166161   0.267767
     19      -0.073177  -0.102640  -0.195147  -0.046397   0.022137   0.271116
     20       0.021882   0.085870  -0.028144  -0.196423   0.089257   0.073685
     21      -0.023279  -0.097851  -0.055820  -0.003331   0.052707  -0.053784
     22      -0.216344  -0.057387   0.130231  -0.130127   0.182476  -0.092007
     23      -0.142989  -0.156713  -0.021167   0.105014  -0.029677  -0.013689
     24      -0.088501  -0.060134  -0.120155  -0.093595  -0.085904  -0.004992
     25       0.054352   0.067053   0.024022   0.050473   0.053562  -0.009034
     26      -0.044422  -0.054188   0.074729   0.191605  -0.010854   0.028271
     27       0.003701   0.018007  -0.138336   0.068255   0.114679  -0.104219
     28      -0.014060  -0.035635   0.050813  -0.030927  -0.036594   0.018954
     29       0.022376   0.032704  -0.035837  -0.093062   0.023633   0.000037
     30       0.077398   0.068996  -0.043431   0.021788   0.008318  -0.026892
     31       0.012843  -0.038836   0.018161  -0.007948  -0.026250   0.034323
     32      -0.002733   0.001291   0.006364   0.010333   0.002122  -0.000750
     33      -0.040716  -0.033094  -0.029679   0.016136  -0.003958  -0.049727
     34       0.019210  -0.012652   0.007533   0.047020  -0.003785   0.027994
     35      -0.001767  -0.001400   0.010671  -0.031517   0.014343  -0.011994
     36       0.024036   0.016044  -0.051589   0.023893   0.091587  -0.099007
     37       0.030371  -0.039328   0.051626  -0.027329  -0.041412   0.036018
     38      -0.000456  -0.003791  -0.002027   0.021065   0.006803  -0.011071
     39       0.194892  -0.139451   0.044833  -0.031479   0.049705  -0.018906
     40      -0.102375   0.071819  -0.057946   0.027529   0.032508  -0.027880
     41       0.024093  -0.016766   0.003880   0.001452   0.005291  -0.003335
     42      -0.025200   0.002827   0.003888  -0.003026  -0.010547  -0.009418
     43       0.085345   0.004066  -0.057869  -0.006069  -0.010454  -0.014922
     44       0.115662  -0.001835  -0.082286   0.011506  -0.018576  -0.016797
     45       0.011600   0.001029  -0.005127  -0.000280   0.005327  -0.009308
     46      -0.061531   0.018620   0.039661  -0.019228   0.006548   0.008516
     47      -0.070509   0.022078   0.048584  -0.001633   0.002729   0.026077
     48      -0.154208   0.111325   0.055514  -0.001799  -0.117646   0.095658
     49       0.151750  -0.120821   0.098884  -0.040679  -0.023274   0.052677
     50      -0.015636   0.010410   0.009017   0.000150  -0.013574   0.011583
     51       0.013002  -0.034327  -0.003258  -0.002740   0.021370   0.000181
     52       0.058212  -0.026957   0.024942  -0.010667  -0.007583   0.016208
     53       0.001735  -0.002748  -0.001643  -0.003623   0.002355   0.000249
     54      -0.039145  -0.004986   0.027388  -0.001286   0.011151   0.006875
     55       0.010085  -0.001194  -0.002009  -0.000912   0.003911   0.005979
     56       0.008795  -0.002676   0.000927   0.002360   0.003922   0.011831
     57       0.026482   0.038442   0.013345  -0.008569  -0.015849   0.025076
     58       0.016663   0.004598  -0.010952  -0.001285  -0.007492  -0.004682
     59       0.026487   0.010681  -0.015478  -0.000922  -0.014531  -0.001570
     60       0.007491  -0.004211   0.005338   0.000687   0.015376   0.002420
     61       0.005747  -0.008039  -0.000476   0.004888   0.006233   0.001417
     62       0.006852  -0.010051   0.002089   0.000763   0.013041  -0.000611
     63       0.120735   0.147489   0.136807   0.126365   0.376150   0.383510
     64       0.021707  -0.037372  -0.146819  -0.048461  -0.058428   0.426176
     65       0.012506   0.087435  -0.019867  -0.196057   0.132363   0.044448
     66       0.108229  -0.062608  -0.256404  -0.085421   0.017795  -0.134854
     67      -0.265323  -0.020501   0.419438  -0.008461   0.166507  -0.168658
     68      -0.101142  -0.147480  -0.113251   0.064025  -0.043072  -0.009542
     69      -0.012578  -0.033490  -0.108606  -0.150994  -0.204779  -0.336392
     70      -0.137761  -0.183709   0.157923   0.532565  -0.118494  -0.029949
     71       0.054529   0.067479   0.011406  -0.046411   0.064619   0.014225
     72      -0.181141  -0.073862   0.106555  -0.399956  -0.339157  -0.088286
     73       0.168185   0.232581   0.016906  -0.468508   0.041070  -0.039440
     74       0.121504   0.126098  -0.055235  -0.185790   0.109290   0.030104
     75       0.285895  -0.489348   0.113011  -0.100753   0.295097  -0.131264
     76      -0.059285  -0.124050  -0.022804  -0.011532   0.175066  -0.093795
     77       0.028753  -0.052016   0.013481  -0.025990   0.039025  -0.010912
     78      -0.137952   0.043348   0.165395  -0.007208  -0.002831   0.091726
     79       0.170928  -0.042547  -0.178252   0.061456  -0.031976  -0.064287
     80       0.186145  -0.019350  -0.186841  -0.027297  -0.013832  -0.099055
     81      -0.197249  -0.351481  -0.311888   0.011406  -0.301553   0.012435
     82      -0.126279  -0.264553  -0.221204   0.023372  -0.282795  -0.068620
     83      -0.130855  -0.238363  -0.213750   0.010979  -0.192468   0.015219
     84       0.019012   0.005123   0.051046  -0.002860   0.089561   0.039601
     85      -0.024870   0.004449   0.021685   0.043752  -0.000564   0.061243
     86      -0.098710   0.038774   0.088269  -0.053579   0.040587   0.008721
     87      -0.156697   0.111873   0.061634  -0.002108  -0.124206   0.102066
     88       0.421392  -0.340344   0.317096  -0.132282  -0.072537   0.156518
     89      -0.006598   0.014758   0.010449  -0.014009  -0.015764   0.019418
     90      -0.097623   0.107653   0.122380  -0.034403  -0.039308   0.114964
     91       0.085144  -0.036744  -0.074496   0.015467   0.004126  -0.056887
     92       0.114416  -0.033714  -0.089822   0.015141   0.000739  -0.061455
     93       0.018194  -0.025885   0.031550  -0.013803  -0.000174  -0.008186
     94      -0.144248   0.053803   0.064383  -0.031855  -0.251407   0.283040
     95       0.001360  -0.000367   0.000413  -0.007866   0.000188   0.004317
     96       0.003468   0.006219   0.083858  -0.026055  -0.099974   0.100306
     97      -0.049740   0.033229   0.038582  -0.009990  -0.067471   0.062911
     98      -0.000479   0.000871   0.010270  -0.002902  -0.013073   0.013276
     99       0.066440   0.013627  -0.052364   0.002153  -0.021208  -0.032571
    100      -0.066558  -0.010635   0.044946  -0.001300   0.014626   0.025568
    101      -0.078717  -0.011023   0.052982  -0.003904   0.016660   0.027942
    102       0.005381  -0.033816   0.007174   0.006055   0.059894  -0.006969
    103      -0.002579   0.016600  -0.005581  -0.003761  -0.029292   0.003113
    104      -0.000981   0.017888  -0.006363  -0.002832  -0.031195   0.000601
                 60         61         62         63         64         65    
      0       0.000968   0.063608  -0.008382  -0.074864   0.016200  -0.065408
      1      -0.022308   0.007967  -0.005864  -0.017185   0.005264  -0.008467
      2      -0.008345   0.005663  -0.006369  -0.007182   0.005799  -0.013137
      3      -0.004765   0.007068  -0.003930   0.001738   0.003971  -0.008118
      4      -0.008775   0.006164   0.006133  -0.006292  -0.003861   0.005283
      5      -0.001655   0.003768  -0.001333  -0.001132   0.001826   0.001534
      6       0.000806  -0.029915   0.010843  -0.012845  -0.002130  -0.002726
      7      -0.002462   0.034262   0.000683  -0.031768  -0.002067   0.006909
      8      -0.000132  -0.003433   0.001431  -0.003695  -0.000350   0.000868
      9      -0.000420   0.095352  -0.024073  -0.001631  -0.002010   0.008001
     10      -0.000087   0.089181  -0.017658  -0.026952   0.006574  -0.023033
     11      -0.000010   0.012714  -0.003155  -0.000346  -0.000133   0.000460
     12      -0.039573   0.013412   0.027159   0.005654   0.027533  -0.018092
     13       0.043835  -0.012563  -0.030872  -0.003325  -0.001172   0.007360
     14       0.053493  -0.015048  -0.037855  -0.003580   0.002714   0.007197
     15       0.062957  -0.008554  -0.032288  -0.004181  -0.008582  -0.016348
     16      -0.026104   0.003929   0.018197   0.002312   0.007521   0.016189
     17      -0.025674   0.003904   0.019548   0.002353   0.008990   0.019686
     18       0.021408  -0.011364  -0.005415  -0.033369   0.001395   0.036726
     19       0.004331  -0.010246  -0.005840   0.013256   0.002546  -0.014307
     20       0.004975   0.001863  -0.010066   0.031428   0.007640  -0.042693
     21      -0.024133   0.011876   0.070097   0.014058  -0.057750   0.019223
     22       0.047932  -0.023845  -0.006529   0.062686   0.011375  -0.007986
     23       0.016054  -0.005943  -0.011624  -0.037106   0.009830   0.046008
     24      -0.006746   0.000898  -0.012949   0.009609   0.011665  -0.016249
     25       0.002245  -0.038418   0.001819   0.028883   0.008637   0.014155
     26       0.011860  -0.012950   0.004609   0.019986   0.000121  -0.006756
     27      -0.002218   0.063732  -0.007826  -0.009335  -0.004920  -0.012685
     28      -0.001646   0.078825   0.004968  -0.080478  -0.019876  -0.025611
     29      -0.005412   0.009727  -0.005391  -0.041286  -0.001156   0.035018
     30      -0.009520  -0.065159  -0.001422   0.085728  -0.014715   0.067420
     31      -0.004159   0.057029  -0.008597  -0.005133  -0.018256   0.012122
     32       0.001043  -0.006116  -0.002173   0.014285  -0.000806   0.005371
     33       0.004908  -0.048769  -0.121773  -0.006745   0.105430   0.027921
     34      -0.020506   0.001245   0.001971  -0.020967  -0.020772   0.025179
     35      -0.023395   0.000809  -0.004611  -0.002604  -0.016245   0.006425
     36      -0.001245   0.016342   0.015231  -0.068293  -0.004220  -0.003565
     37       0.001829  -0.075807   0.024670  -0.022824  -0.000800  -0.012878
     38       0.000422   0.001309   0.002368  -0.002704  -0.000428  -0.005155
     39       0.004649  -0.044039   0.011067   0.001330  -0.000254   0.006645
     40       0.004153  -0.061760  -0.001952   0.052436   0.010437   0.025236
     41       0.000545  -0.006280   0.001691   0.001709   0.000080  -0.000076
     42       0.119268  -0.017935  -0.045658  -0.009766  -0.022405   0.017650
     43       0.045858   0.005954   0.023607   0.008513   0.003114  -0.004722
     44       0.080619   0.004362   0.024790   0.008199   0.003317   0.000490
     45      -0.062563  -0.025861  -0.072811  -0.001189  -0.015279  -0.025823
     46      -0.016814   0.011102   0.029499   0.006841  -0.015099  -0.009827
     47      -0.036766   0.010171   0.024737   0.003452  -0.024057  -0.014500
     48      -0.002123  -0.052585  -0.002307   0.048105   0.009417  -0.002931
     49       0.004239  -0.013113  -0.008120   0.046083  -0.003031   0.022558
     50       0.000026  -0.006607  -0.000240   0.007137   0.001065  -0.000781
     51       0.000559  -0.018678  -0.006469   0.061201  -0.017519   0.060288
     52      -0.000670  -0.146502   0.037823   0.004782  -0.003813   0.007815
     53      -0.000191  -0.004998  -0.000048   0.006113  -0.002269   0.008380
     54      -0.052550   0.002666  -0.000744   0.007727   0.045412  -0.023374
     55      -0.048586   0.016606   0.040169   0.004790  -0.002471  -0.011328
     56      -0.074907   0.023098   0.053840   0.005928   0.003833  -0.018085
     57       0.093668   0.031114   0.083476   0.003848  -0.010704   0.009412
     58       0.054316  -0.007573  -0.025186  -0.001222  -0.019282  -0.018851
     59       0.090234  -0.005043  -0.019691  -0.002015  -0.028088  -0.023014
     60      -0.080673   0.010488   0.044681   0.005356   0.005255   0.024451
     61      -0.048923  -0.001486   0.000570  -0.001957   0.006461   0.018758
     62      -0.079667  -0.000125   0.008669  -0.000557   0.009428   0.028556
     63       0.072171  -0.043220   0.020597   0.195587  -0.004874  -0.144947
     64      -0.048555   0.002524  -0.110202  -0.179864   0.074828   0.086948
     65       0.023978  -0.005047   0.014120   0.107847  -0.007001  -0.094940
     66      -0.021175   0.107489   0.307571   0.103015  -0.219654  -0.184007
     67       0.058385   0.056400  -0.074300  -0.233540   0.044041   0.092428
     68       0.015322   0.003610   0.045926   0.025937  -0.026255  -0.017066
     69       0.000083  -0.100789   0.059112   0.492151   0.006246  -0.378619
     70       0.030717  -0.089414   0.038531   0.264345   0.006183  -0.179050
     71      -0.000108   0.001231  -0.006034  -0.040912   0.000872   0.045735
     72      -0.033702  -0.164993  -0.006054  -0.198047  -0.004884   0.390383
     73      -0.025852  -0.093215  -0.007371  -0.111510   0.000925   0.229600
     74      -0.002834   0.020749  -0.008567  -0.012450   0.001196  -0.002759
     75       0.061265   0.057892   0.024061  -0.282705   0.151084  -0.379236
     76       0.036795  -0.005222   0.004758  -0.105459   0.096571  -0.190726
     77       0.008291   0.006046   0.001934  -0.034100   0.018954  -0.044773
     78       0.153451   0.054579   0.120371  -0.059509  -0.478897  -0.000391
     79       0.021129  -0.042888  -0.086344   0.032386   0.299311   0.019287
     80       0.071013  -0.044394  -0.086890   0.046117   0.307154   0.008410
     81      -0.021191  -0.008464   0.098793  -0.020621  -0.079703   0.063037
     82      -0.021436  -0.006461   0.085768  -0.014324  -0.067385   0.048264
     83      -0.011863  -0.008964   0.073008  -0.000911  -0.056575   0.031230
     84      -0.651793  -0.107887  -0.300286  -0.015635  -0.408480  -0.156305
     85      -0.090032   0.002463   0.001907  -0.009686  -0.067680  -0.017057
     86      -0.202550  -0.010782  -0.031458   0.011778  -0.140807  -0.061607
     87      -0.001930  -0.041245  -0.008361   0.060126   0.010336  -0.000774
     88       0.018012   0.722197  -0.286215   0.347945   0.016264   0.141961
     89      -0.000601   0.008888  -0.006977   0.009468   0.001458   0.007283
     90       0.220398   0.199899   0.548957   0.051208   0.164087   0.098354
     91      -0.012185  -0.107776  -0.301512  -0.030962  -0.126087  -0.072301
     92       0.009631  -0.119174  -0.336722  -0.033637  -0.152684  -0.088829
     93       0.000390  -0.050123   0.028083  -0.056766  -0.007085   0.002052
     94       0.001902   0.199103  -0.153509   0.371844   0.042888  -0.036031
     95       0.000240   0.001136  -0.000068   0.001774   0.000034  -0.003747
     96       0.000326  -0.354687   0.128104  -0.186231   0.062719  -0.256310
     97       0.000459  -0.233105   0.092298  -0.163949   0.053929  -0.216676
     98      -0.000076  -0.046041   0.016971  -0.024865   0.008422  -0.034162
     99       0.238753  -0.049422  -0.064812  -0.028776  -0.241067   0.119407
    100      -0.179630   0.036688   0.040514   0.024359   0.215508  -0.102796
    101      -0.207082   0.043099   0.045332   0.028434   0.255530  -0.122202
    102      -0.366099   0.018356   0.160075   0.023195   0.127828   0.251567
    103       0.181472  -0.009499  -0.075246  -0.011083  -0.059044  -0.113211
    104       0.189554  -0.009510  -0.077085  -0.011465  -0.059753  -0.114804
                 66         67         68         69         70         71    
      0      -0.023403  -0.025716   0.047810   0.000897   0.039585   0.001591
      1      -0.011076   0.018110   0.006833  -0.005803   0.012431   0.015085
      2      -0.008335  -0.003126   0.017957   0.018475   0.001739   0.018362
      3      -0.006787  -0.014861  -0.015546  -0.030013  -0.010456  -0.006666
      4       0.005260   0.003557  -0.005682   0.016766   0.012147   0.002489
      5      -0.000254  -0.001501  -0.018189  -0.011748   0.012825  -0.001906
      6       0.005200  -0.025215   0.037117  -0.011962   0.006261   0.002873
      7       0.002493   0.031194   0.032475   0.009911  -0.069469  -0.016886
      8       0.001252  -0.002278   0.005684  -0.001471  -0.000380  -0.000028
      9       0.004011  -0.001618   0.049213  -0.015697   0.030284   0.011857
     10      -0.016985   0.033240   0.019226   0.007760  -0.020195   0.001268
     11       0.000153   0.000121   0.006326  -0.001792   0.003393   0.001482
     12       0.054040   0.006109  -0.005876  -0.006054  -0.005937   0.012383
     13      -0.022803  -0.007559   0.005396   0.008531   0.006483  -0.033984
     14      -0.022884  -0.009505   0.006491   0.010788   0.008028  -0.044134
     15       0.025178   0.002325   0.000833   0.000495   0.009228  -0.061274
     16      -0.030886  -0.004540   0.002572   0.002638   0.001241   0.004476
     17      -0.038105  -0.005832   0.003641   0.003771   0.003060  -0.003383
     18       0.022441   0.026745   0.012525   0.039847   0.019902   0.000058
     19      -0.010103  -0.005622   0.018280  -0.017949  -0.014731  -0.006376
     20      -0.023950  -0.033452   0.016702  -0.002883  -0.012649   0.020981
     21       0.015020   0.023149  -0.032460  -0.035468  -0.028601   0.028557
     22       0.004279  -0.025502   0.003890   0.045281  -0.007305   0.001404
     23       0.012410   0.013271  -0.037123  -0.073208  -0.022667  -0.028069
     24      -0.017301   0.003193  -0.035195  -0.030858   0.063874   0.008907
     25      -0.000676   0.082982   0.004818  -0.021358   0.066189   0.015014
     26       0.001921   0.008496   0.027011   0.023283  -0.007365  -0.007287
     27      -0.003884  -0.059576  -0.110385   0.023618   0.058765   0.016438
     28       0.005606  -0.156832  -0.035641   0.058927  -0.081051  -0.022534
     29       0.015657   0.010765  -0.026692   0.009945   0.018428  -0.000609
     30       0.024038   0.021711  -0.036550   0.020385  -0.074166  -0.013964
     31       0.012052  -0.091522  -0.030611   0.024133  -0.040469  -0.005308
     32       0.001739  -0.003411  -0.002932   0.004518  -0.011328  -0.001141
     33      -0.041124  -0.034083   0.010612   0.012796  -0.015062   0.095719
     34      -0.014397   0.005826  -0.007504  -0.012532  -0.017647   0.035238
     35      -0.030285  -0.009420   0.001177  -0.000028  -0.014432   0.056382
     36       0.005437  -0.002254   0.030071   0.013722  -0.054331  -0.014954
     37       0.009135  -0.064194   0.046616  -0.031867   0.080121   0.022238
     38      -0.001424  -0.002583   0.004442   0.001008  -0.006181  -0.001085
     39       0.005134   0.005347  -0.013888   0.015374  -0.064943  -0.027875
     40       0.007065   0.068770   0.032135  -0.032140   0.035137  -0.001389
     41       0.000202   0.001345  -0.000942   0.000690  -0.007293  -0.003708
     42      -0.051808  -0.010600   0.007546   0.007539   0.010235  -0.044945
     43       0.010873   0.005363  -0.002410  -0.003191   0.002909  -0.004125
     44       0.006964   0.006238  -0.002793  -0.003465   0.005043  -0.013827
     45       0.022445   0.002255   0.004722   0.007781   0.005218  -0.007308
     46       0.011471   0.006473  -0.001908  -0.001927   0.000616   0.012989
     47       0.020964   0.011393  -0.002563  -0.003090   0.001106   0.016451
     48      -0.013310   0.060765  -0.021169  -0.000187  -0.005086  -0.000518
     49       0.012583  -0.021607   0.001406  -0.027330   0.089417   0.025857
     50      -0.001653   0.005982  -0.001771  -0.000735   0.000692   0.000470
     51       0.034978  -0.061078  -0.006404  -0.020819   0.047763   0.004067
     52       0.011238  -0.031578  -0.042532   0.000733   0.009235  -0.008152
     53       0.004807  -0.007071  -0.002052  -0.002581   0.005567   0.000046
     54       0.065470  -0.000359  -0.001795   0.006891   0.002303  -0.042649
     55       0.030252   0.011253  -0.007773  -0.013147  -0.010523   0.069925
     56       0.051795   0.015919  -0.011190  -0.017848  -0.014551   0.089010
     57      -0.000244   0.006251  -0.005048  -0.005257  -0.005473   0.016450
     58       0.027694   0.005316  -0.000722   0.001340   0.006177  -0.039346
     59       0.038112   0.009130  -0.002524  -0.000669   0.007346  -0.052190
     60      -0.036738  -0.001727  -0.004703  -0.005435  -0.021871   0.133397
     61      -0.042038  -0.007297   0.005720   0.003512   0.007611  -0.030795
     62      -0.063645  -0.010613   0.007350   0.004484   0.007242  -0.021147
     63      -0.030254  -0.069088   0.203143   0.151253  -0.141465  -0.042688
     64      -0.044155  -0.020866  -0.112593  -0.618689  -0.380138  -0.132132
     65      -0.027645  -0.050063   0.072839   0.124308   0.024703   0.036118
     66       0.049682   0.089748  -0.022463  -0.122041   0.210503  -0.413179
     67       0.032350   0.010120  -0.142441  -0.247651   0.106013  -0.116360
     68       0.012044   0.019095  -0.008764  -0.046930   0.009634  -0.099226
     69      -0.190399  -0.100775   0.274190  -0.219223  -0.344775   0.018147
     70      -0.082166   0.001240   0.176782  -0.067421  -0.139860  -0.003182
     71       0.021721   0.032362  -0.023272   0.024718   0.046337   0.003289
     72       0.175619   0.389367   0.187369   0.082640  -0.200850  -0.094257
     73       0.092860   0.249888   0.053013   0.003666  -0.026952  -0.012203
     74      -0.004854  -0.024674  -0.040834  -0.007767   0.035118   0.019521
     75      -0.231678   0.490666   0.026392  -0.031189   0.224719   0.105891
     76      -0.125428   0.344975   0.060496  -0.064546   0.212560   0.076973
     77      -0.028172   0.062511   0.004771  -0.002338   0.029354   0.015139
     78      -0.066210   0.092772  -0.046169  -0.091887  -0.058793   0.259585
     79       0.018147  -0.059065   0.030408   0.059933   0.046673  -0.194372
     80       0.009330  -0.065381   0.034304   0.062223   0.051976  -0.215801
     81       0.072872   0.093043   0.143951   0.368917   0.066670   0.063289
     82       0.061517   0.078314   0.122008   0.313945   0.059570   0.053053
     83       0.047912   0.061729   0.107880   0.261045   0.048349   0.044334
     84      -0.006089   0.065829   0.038081   0.033650   0.131237  -0.513145
     85       0.012361   0.021049  -0.002393  -0.009262   0.014869  -0.051403
     86       0.012461   0.026798   0.009938   0.011250   0.039664  -0.131504
     87      -0.015576   0.073758  -0.027821   0.002938  -0.015297  -0.003930
     88      -0.032524   0.413930   0.030926   0.057752  -0.328267  -0.101319
     89      -0.000225   0.019073  -0.005504   0.003710  -0.005129  -0.002117
     90      -0.036587   0.002012  -0.011484  -0.018874   0.049633  -0.291718
     91       0.054755   0.009885   0.001808   0.008267  -0.028866   0.153205
     92       0.069644   0.013671   0.001181   0.007945  -0.030959   0.163751
     93       0.017352  -0.040709   0.112413  -0.024800  -0.022186  -0.002200
     94      -0.107361   0.158686  -0.674407   0.126619   0.227098   0.037746
     95      -0.001588  -0.005309  -0.002954  -0.000592   0.001547   0.000869
     96      -0.157097   0.189543  -0.355600   0.194951  -0.361209  -0.080607
     97      -0.134888   0.173199  -0.271732   0.160270  -0.302795  -0.064866
     98      -0.020695   0.025487  -0.047057   0.025978  -0.048588  -0.010637
     99      -0.351636  -0.009964   0.022037   0.006263   0.021768   0.053888
    100       0.302843   0.004264  -0.016710  -0.000139  -0.015004  -0.068736
    101       0.356922   0.005310  -0.018999  -0.000068  -0.017421  -0.085404
    102      -0.518417  -0.088714   0.062098   0.061815   0.077940  -0.240128
    103       0.232085   0.039466  -0.027051  -0.026658  -0.032059   0.090678
    104       0.234619   0.039952  -0.027352  -0.027707  -0.031373   0.084854
                 72         73         74         75         76         77    
      0       0.016519  -0.008522   0.001552  -0.020123  -0.009861  -0.006455
      1      -0.015017   0.011529  -0.003398   0.014722   0.001151  -0.002064
      2      -0.012363  -0.004841  -0.021209   0.012428   0.003930  -0.004649
      3       0.000401   0.000528  -0.024639  -0.011903  -0.009666   0.008428
      4       0.000716  -0.002161   0.006086   0.003638   0.001283   0.001028
      5       0.010504  -0.024200  -0.033030  -0.003489   0.000368  -0.011312
      6       0.007455  -0.016595  -0.010039   0.005158   0.003357   0.020581
      7       0.025681  -0.040299   0.013421  -0.001470  -0.004701   0.023335
      8       0.001578  -0.003127  -0.001298   0.000645   0.000314   0.003612
      9      -0.017590   0.025329  -0.014600   0.007227   0.006244  -0.015606
     10      -0.007161   0.007136  -0.016325   0.008945   0.008137   0.014963
     11      -0.002211   0.003124  -0.001968   0.001033   0.000874  -0.001744
     12      -0.035672  -0.014686   0.004322   0.016975  -0.025543  -0.006919
     13       0.031648   0.014974  -0.004533   0.038370  -0.012342  -0.001864
     14       0.037597   0.018056  -0.005509   0.053911  -0.020334  -0.003466
     15      -0.106607  -0.039042   0.005613   0.004278   0.003649   0.002480
     16       0.020361   0.007680  -0.000173   0.006974  -0.022304  -0.006529
     17       0.010858   0.004309   0.000621   0.010336  -0.029657  -0.008507
     18       0.009003  -0.022095   0.002859   0.037784   0.057548  -0.111808
     19       0.013246  -0.019172  -0.019366  -0.019398  -0.005858  -0.013167
     20      -0.009988  -0.003818   0.087157   0.049503   0.033381  -0.013637
     21      -0.034973  -0.004614  -0.012129   0.145400   0.033863   0.032844
     22      -0.005980  -0.011997  -0.086280  -0.034767   0.003531  -0.019886
     23       0.007463   0.010742  -0.005649  -0.015815   0.012162   0.000879
     24       0.070043  -0.123996  -0.008776  -0.015869  -0.033838   0.055447
     25       0.026846  -0.056598   0.010235   0.015027  -0.009264   0.040460
     26      -0.002630   0.021819  -0.010631  -0.032174  -0.023485   0.026897
     27      -0.059120   0.092044   0.001144   0.015494   0.009994   0.061481
     28      -0.010977   0.040611  -0.010579  -0.035072   0.000023  -0.102858
     29      -0.004613   0.010295  -0.008876  -0.005530  -0.003709   0.009175
     30      -0.018761   0.025160  -0.026707   0.019797   0.023945   0.036652
     31       0.007544  -0.027949  -0.011031   0.030233   0.010570   0.152932
     32      -0.002871   0.002766  -0.003283   0.002836   0.003999   0.010207
     33      -0.056681  -0.030567   0.018992  -0.109256  -0.004153  -0.006162
     34      -0.014335   0.000273   0.009499   0.111102  -0.025950  -0.003089
     35      -0.019355  -0.008627  -0.004157   0.107189  -0.052025  -0.005854
     36      -0.001486   0.018630   0.019067  -0.026697  -0.011454  -0.120968
     37      -0.027126   0.038506  -0.030997   0.003727   0.011224  -0.035397
     38      -0.001065   0.003220   0.002333  -0.002721  -0.000951  -0.016212
     39       0.033728  -0.034335   0.025990  -0.037650  -0.013897  -0.096828
     40       0.019247  -0.019752   0.021666  -0.024369  -0.012922  -0.069661
     41       0.004728  -0.004263   0.004047  -0.005178  -0.002049  -0.013336
     42       0.005190   0.005321  -0.003991   0.037894   0.020853   0.005262
     43      -0.030645  -0.014017   0.003889  -0.045431  -0.011515  -0.005048
     44      -0.038960  -0.016964   0.003926  -0.052669  -0.010942  -0.005608
     45      -0.077415  -0.033190   0.014150  -0.085221  -0.047686  -0.012486
     46       0.048577   0.017308  -0.004212  -0.017193  -0.005668  -0.003722
     47       0.053217   0.018520  -0.000394  -0.034694  -0.012462  -0.006922
     48       0.009254  -0.018712   0.001528   0.006349   0.000599   0.014612
     49      -0.028126   0.028911  -0.012805   0.033488   0.012243   0.101952
     50       0.000475  -0.001564   0.000186   0.001614   0.000491   0.003707
     51       0.014877  -0.023790   0.019648  -0.000794  -0.010200   0.061834
     52       0.016207  -0.011054   0.035614  -0.029390  -0.021272  -0.095392
     53       0.002210  -0.003081   0.002910  -0.000817  -0.001670   0.005627
     54       0.056244   0.024882  -0.009319   0.002095   0.023754   0.009854
     55      -0.039377  -0.021524   0.007425  -0.110027   0.042958   0.007508
     56      -0.045789  -0.025346   0.009815  -0.147762   0.062065   0.011792
     57       0.099006   0.040934  -0.011251   0.098186  -0.017681  -0.005520
     58      -0.014408  -0.004210  -0.002402  -0.006221   0.006165   0.002526
     59      -0.004485   0.000935  -0.003530   0.007487   0.005688   0.002549
     60       0.202981   0.073166  -0.011227  -0.020508   0.031238   0.006283
     61      -0.055994  -0.019848   0.002594   0.001771   0.037624   0.011649
     62      -0.044757  -0.015899   0.001224  -0.001639   0.055821   0.016819
     63      -0.130257   0.415495   0.107907  -0.363967  -0.375345   0.648829
     64      -0.121337   0.291138  -0.035808  -0.021857  -0.028951   0.058706
     65      -0.009823   0.016380   0.113677  -0.020063  -0.037836   0.107951
     66       0.375167   0.101572   0.023513  -0.469247  -0.339774  -0.124110
     67       0.140659   0.053721   0.835593  -0.031130   0.035899   0.154148
     68       0.069922   0.022840  -0.145134  -0.149501  -0.074528  -0.062588
     69      -0.163690   0.195240   0.178799   0.222336   0.203359  -0.223873
     70      -0.053327   0.088678   0.060069   0.037596   0.042618  -0.061696
     71       0.009112  -0.011643  -0.010921  -0.015298  -0.020102   0.042164
     72      -0.198623   0.453118  -0.110828  -0.161159  -0.060654   0.051742
     73      -0.095459   0.170786  -0.009546   0.010585   0.026851  -0.014200
     74       0.013034  -0.048211   0.029318   0.039760   0.026125  -0.020649
     75      -0.147669   0.182250  -0.100354   0.092335   0.043492   0.056741
     76      -0.083518   0.103227  -0.046594   0.047318   0.017077   0.010449
     77      -0.020055   0.022389  -0.014485   0.012271   0.005912   0.009063
     78      -0.403622  -0.167324   0.035478  -0.026279  -0.223150  -0.065325
     79       0.227069   0.096155  -0.020100  -0.007723   0.153131   0.043487
     80       0.231669   0.095543  -0.021785  -0.029863   0.160656   0.041797
     81      -0.040820   0.087137   0.265529   0.102436   0.056874  -0.004227
     82      -0.035912   0.075752   0.226716   0.083361   0.044880   0.002586
     83      -0.028953   0.059972   0.180109   0.067990   0.037250  -0.001333
     84       0.005654   0.029379  -0.047822   0.050326   0.317498   0.079447
     85       0.066404   0.027649  -0.001707   0.010814   0.040678   0.004547
     86       0.090605   0.041975  -0.029141   0.000804   0.089157   0.019873
     87       0.014430  -0.025234   0.006082   0.003113  -0.001768   0.007513
     88       0.184417  -0.257573   0.060289  -0.069048  -0.038630  -0.036789
     89       0.003475  -0.004696   0.000858  -0.001727  -0.001406   0.001467
     90      -0.212489  -0.069811  -0.010829  -0.080508   0.259647   0.076561
     91       0.189418   0.069240  -0.002621   0.106042  -0.159529  -0.047243
     92       0.230395   0.084885  -0.006839   0.132225  -0.180755  -0.052990
     93       0.029617  -0.058119  -0.014491   0.011657   0.004499   0.062022
     94      -0.200853   0.384309   0.048446  -0.068689  -0.015870  -0.413371
     95       0.000681  -0.001941   0.000838   0.000751   0.000909  -0.004639
     96       0.082082  -0.147312   0.011718   0.016791   0.005438   0.269320
     97       0.063367  -0.115295   0.001278   0.016259   0.008068   0.216587
     98       0.010597  -0.019527   0.001371   0.001985   0.000727   0.035529
     99       0.127208   0.042987  -0.010558  -0.310463   0.212319   0.048272
    100      -0.093436  -0.029148   0.006444   0.298631  -0.200563  -0.045205
    101      -0.108014  -0.033021   0.008058   0.359382  -0.240470  -0.054447
    102      -0.187860  -0.065338   0.027653   0.088626  -0.346679  -0.094533
    103       0.055616   0.018829  -0.010658  -0.034333   0.151100   0.041446
    104       0.045910   0.015269  -0.010236  -0.033527   0.150590   0.041734
                 78         79         80         81         82         83    
      0       0.022737  -0.064855   0.072594  -0.015094   0.006406  -0.038089
      1       0.011798   0.011498   0.017909  -0.007932  -0.000941  -0.014272
      2       0.011529  -0.001043   0.031036  -0.003811   0.003222  -0.011485
      3       0.009401   0.007213  -0.003760  -0.032179   0.000922  -0.002643
      4       0.000920  -0.000362   0.004105   0.016788  -0.000708   0.003291
      5      -0.007325  -0.003120  -0.018616  -0.042001  -0.000635  -0.003393
      6      -0.018400   0.024719  -0.033428   0.012303  -0.001251  -0.019090
      7       0.009187  -0.065040   0.051016  -0.015821   0.006874   0.049799
      8      -0.002394   0.001632  -0.003438   0.001262  -0.000100  -0.001942
      9      -0.009851   0.042818  -0.026663   0.004916   0.000867   0.053460
     10      -0.030236   0.047227  -0.060573   0.015601  -0.005270  -0.013743
     11      -0.001538   0.005739  -0.003883   0.000775   0.000018   0.006162
     12       0.015034  -0.015322  -0.028780   0.003295   0.064234  -0.001912
     13      -0.018610   0.011752   0.020443  -0.002592  -0.034780   0.000063
     14      -0.022937   0.013671   0.023479  -0.003080  -0.037377  -0.000271
     15       0.035591  -0.012057  -0.023949   0.002768  -0.004025   0.003771
     16      -0.032035   0.005739   0.011702  -0.000349   0.029275  -0.003458
     17      -0.037867   0.005917   0.012195   0.000005   0.039398  -0.004145
     18      -0.093202  -0.100998  -0.040414   0.047187  -0.010619   0.001209
     19      -0.020153   0.003591  -0.076955  -0.173179  -0.004889  -0.011109
     20      -0.024021  -0.001443   0.014373   0.050519   0.002442   0.008175
     21       0.027724   0.122036   0.106049  -0.058499   0.009500  -0.035292
     22      -0.002079  -0.035794   0.032379   0.071407   0.026854   0.002109
     23      -0.017615   0.009332   0.002569  -0.003610   0.037699  -0.002787
     24       0.062602   0.103673   0.025137   0.028307   0.010661   0.072598
     25       0.026970   0.014221   0.039865   0.055367  -0.007466  -0.040700
     26       0.024485   0.006977   0.002051  -0.011323  -0.001177  -0.007763
     27      -0.044420  -0.090499  -0.012633  -0.002584  -0.009687  -0.134314
     28       0.018920   0.067486  -0.019461  -0.003559   0.012688   0.057609
     29      -0.000541  -0.006076  -0.003211  -0.001843  -0.001716  -0.017575
     30      -0.089942   0.124598  -0.172286   0.040446   0.002972   0.161489
     31      -0.074195  -0.100294  -0.015614  -0.003908  -0.000986   0.064282
     32      -0.014564   0.009215  -0.020754   0.004707   0.001297   0.021275
     33       0.036412  -0.056059  -0.079473   0.016081   0.046913   0.006490
     34       0.074469  -0.015775  -0.039831  -0.007214  -0.133010   0.007135
     35       0.114822  -0.049014  -0.070266   0.004513  -0.182974   0.013436
     36       0.074296   0.011486   0.075324  -0.031026   0.001081   0.040573
     37      -0.032781   0.175121  -0.154466   0.048662  -0.023902  -0.201791
     38       0.008559   0.003902   0.007076  -0.003307  -0.000235   0.002366
     39       0.053196   0.075580  -0.017475   0.007669  -0.011800  -0.039116
     40       0.049537   0.036014   0.010562   0.007625  -0.009236  -0.117559
     41       0.007433   0.009772  -0.002094   0.001078  -0.001670  -0.006354
     42       0.093307  -0.037705  -0.068642   0.006717   0.117788  -0.001868
     43      -0.063000   0.018514   0.029905  -0.000206   0.036043  -0.003280
     44      -0.069364   0.020548   0.030223  -0.000174   0.068328  -0.005182
     45      -0.134415   0.026690   0.058377  -0.000205  -0.142797   0.014003
     46      -0.029031   0.002049   0.006826   0.002665   0.047487  -0.001353
     47      -0.063032   0.009642   0.019584   0.000822   0.045831  -0.000388
     48      -0.002300  -0.010715   0.012451  -0.001838   0.006592   0.087436
     49      -0.053359  -0.095373   0.015230  -0.005639   0.008558   0.118907
     50      -0.001569  -0.003101   0.001597  -0.000138   0.000909   0.012082
     51       0.012368  -0.143642   0.095023  -0.018332   0.003722  -0.140984
     52       0.098089  -0.062684   0.152979  -0.042902   0.016978   0.097066
     53       0.003073  -0.017517   0.013222  -0.002857   0.000679  -0.015140
     54      -0.099877   0.069704   0.122476  -0.013420  -0.240974   0.006044
     55       0.017076  -0.015333  -0.022704   0.004753   0.074563  -0.001848
     56       0.007513  -0.009310  -0.011962   0.003424   0.064776  -0.001811
     57       0.061354  -0.024512  -0.048836   0.003635   0.120520  -0.005334
     58      -0.047709   0.030332   0.050837  -0.004878  -0.004660  -0.006669
     59      -0.056636   0.038509   0.061389  -0.007251   0.011038  -0.009894
     60      -0.005083   0.008853   0.015766  -0.004860  -0.006265  -0.004054
     61       0.099535  -0.030801  -0.057291   0.003217  -0.073749   0.012535
     62       0.135364  -0.041337  -0.076042   0.004304  -0.102244   0.016724
     63       0.517254   0.429206   0.194824  -0.037043   0.031883  -0.020675
     64       0.108335  -0.052293   0.359358   0.656948   0.020936   0.036016
     65       0.059207   0.103223  -0.020307  -0.108670   0.006242  -0.002307
     66       0.003719  -0.489815  -0.595962   0.191810  -0.355477   0.157530
     67      -0.150327   0.176991  -0.331501  -0.216364   0.033328   0.058062
     68       0.000762  -0.161582  -0.084880   0.095066  -0.045232   0.024060
     69      -0.276230  -0.384475  -0.031489  -0.074420  -0.038510  -0.206060
     70      -0.062795  -0.033973  -0.045094  -0.122893   0.047781   0.280025
     71       0.027382  -0.012808   0.030047   0.059742  -0.028699  -0.172762
     72      -0.039218  -0.299838  -0.068095  -0.288103  -0.033724  -0.216098
     73      -0.073742  -0.105525  -0.048678  -0.136034   0.026011   0.122646
     74      -0.019774   0.087703  -0.026483  -0.027982   0.054147   0.295606
     75      -0.082195   0.011530   0.010476  -0.012633   0.039913   0.341940
     76      -0.016307  -0.012557   0.046076  -0.008556   0.020637   0.080587
     77      -0.011134   0.001517   0.001946  -0.001173   0.005790   0.044353
     78      -0.093543  -0.030803  -0.027230   0.014317   0.080518  -0.013494
     79       0.064351   0.019742   0.002826  -0.012137   0.083859  -0.000958
     80       0.056606   0.009454  -0.001966   0.000396   0.118529   0.003038
     81      -0.007344  -0.023406   0.106028   0.355164   0.001104   0.036576
     82      -0.002355  -0.020023   0.093375   0.299779   0.000478   0.031482
     83      -0.004057  -0.019721   0.072817   0.227010   0.000634   0.022424
     84       0.232305   0.047205   0.023120  -0.012073   0.445583  -0.053568
     85       0.005656   0.009175  -0.001036  -0.010909   0.124595  -0.010944
     86       0.045592   0.010873   0.012530   0.007278   0.229299  -0.019858
     87       0.007103  -0.019453   0.028662  -0.006592   0.008827   0.100931
     88       0.076702   0.040565   0.008036   0.027190  -0.013411  -0.379969
     89       0.002265  -0.003465   0.003732  -0.000311   0.000681   0.002558
     90       0.106662   0.084072   0.102588  -0.023582  -0.118394  -0.012246
     91      -0.077113  -0.033308  -0.038291   0.010802   0.150672  -0.004220
     92      -0.088651  -0.033958  -0.038398   0.010889   0.191915  -0.007780
     93      -0.035044   0.012690  -0.041693   0.016697   0.000324  -0.017417
     94       0.178628   0.097578   0.112740  -0.055689  -0.013140   0.015553
     95       0.000505   0.006977  -0.001952   0.002667   0.000342   0.000664
     96      -0.123448  -0.126042  -0.110898   0.036027  -0.024774  -0.342116
     97      -0.112035  -0.067915  -0.123573   0.038450  -0.023387  -0.287893
     98      -0.016374  -0.015936  -0.015391   0.005064  -0.003038  -0.045450
     99      -0.091428   0.073216   0.142519  -0.012489  -0.218809   0.004307
    100       0.062804  -0.056044  -0.111130   0.009201   0.183084  -0.005314
    101       0.070339  -0.065528  -0.129441   0.010920   0.214481  -0.005810
    102      -0.412099   0.058146   0.121112   0.003986   0.335742  -0.032273
    103       0.192057  -0.030093  -0.062191  -0.000691  -0.139572   0.014756
    104       0.195760  -0.031426  -0.065194  -0.000391  -0.137554   0.015151
                 84         85         86         87         88         89    
      0      -0.007472  -0.031276   0.002899   0.004606  -0.011783   0.009029
      1      -0.007486   0.027372   0.003096   0.007026   0.019617  -0.005357
      2      -0.002788  -0.003612   0.002194  -0.000341   0.000255   0.000819
      3       0.000570   0.001168   0.000640   0.000512   0.000466  -0.000811
      4      -0.002970   0.000859   0.000080  -0.000710   0.000996   0.000362
      5       0.002234   0.000208   0.000173   0.000046  -0.000108  -0.000783
      6      -0.007335   0.042341   0.000943  -0.017376  -0.026923  -0.005992
      7       0.004059   0.016478   0.000133  -0.006463  -0.007999  -0.010984
      8      -0.000502   0.005893   0.000129  -0.002440  -0.003783  -0.000961
      9       0.017780  -0.020741  -0.001404  -0.027826  -0.047250  -0.001614
     10       0.003728  -0.045211  -0.001794   0.010968   0.018053  -0.006737
     11       0.002156  -0.003034  -0.000197  -0.003194  -0.005457  -0.000247
     12       0.001282   0.000486  -0.018058  -0.004171   0.005252   0.042313
     13      -0.000891   0.000830  -0.018548   0.019640  -0.011908   0.004032
     14      -0.000996   0.001138  -0.027655   0.025682  -0.015271   0.011589
     15      -0.000116   0.000373   0.052186   0.010622  -0.005330  -0.026259
     16       0.000652  -0.001620  -0.006582  -0.024102   0.012211  -0.014563
     17       0.000870  -0.002160  -0.000834  -0.030993   0.015650  -0.024178
     18       0.000045  -0.001194  -0.002056  -0.002529   0.003224   0.004354
     19       0.023957   0.007845  -0.004999   0.007599   0.009397  -0.006932
     20      -0.001053   0.001061   0.000623   0.001349   0.003055   0.001973
     21       0.001589  -0.000482   0.051176  -0.008676   0.001489   0.019796
     22      -0.007523  -0.017564  -0.002532   0.005534  -0.023417   0.004753
     23       0.003682   0.000296   0.006042   0.018258  -0.011629   0.009262
     24      -0.017936  -0.020750  -0.001004   0.017487   0.028301   0.002904
     25       0.073179  -0.018669   0.002968  -0.000833  -0.004305   0.008067
     26       0.016562   0.001502  -0.001788   0.001747   0.002050  -0.000411
     27      -0.041500   0.053320   0.003421  -0.130065  -0.217875  -0.024656
     28      -0.004529   0.197238   0.002059   0.074375   0.145059  -0.056503
     29      -0.002145   0.009126   0.000432  -0.014430  -0.023723  -0.003886
     30       0.027445   0.123391  -0.003112   0.047983   0.100023   0.016468
     31       0.038536  -0.169640  -0.004985  -0.087663  -0.174433   0.082455
     32       0.004113   0.010584  -0.000820   0.003740   0.007333   0.004240
     33       0.001605   0.005444  -0.179900   0.060360  -0.045723  -0.179934
     34      -0.002289   0.005313  -0.010966  -0.136104   0.081453  -0.059612
     35      -0.005393   0.003627  -0.047393  -0.178430   0.100739  -0.114824
     36       0.031224  -0.183646  -0.003709   0.129603   0.202081   0.060880
     37      -0.028355  -0.011491   0.002470  -0.028029  -0.059590   0.064219
     38       0.002854  -0.022469  -0.000437   0.014971   0.023112   0.008098
     39       0.016463  -0.174167  -0.003537  -0.091277  -0.154717  -0.054562
     40      -0.026213  -0.037846   0.000337   0.034311   0.064494  -0.052340
     41       0.001353  -0.020818  -0.000476  -0.010111  -0.017019  -0.007527
     42       0.003132  -0.007282   0.103776  -0.192207   0.121271   0.161260
     43       0.000446   0.003181  -0.059842   0.155912  -0.092414  -0.008119
     44       0.001145   0.003260  -0.064362   0.181980  -0.106600   0.014785
     45      -0.002784   0.000536   0.117891  -0.049623   0.048861   0.299931
     46       0.000883  -0.002414   0.062595   0.056612  -0.031874   0.033412
     47       0.001174  -0.002991   0.104182   0.069627  -0.035839   0.091493
     48       0.015774   0.040590   0.000059  -0.074011  -0.119162  -0.021045
     49       0.024672  -0.109687  -0.006639   0.108043   0.193706  -0.082389
     50       0.002318   0.002954  -0.000114  -0.006689  -0.010462  -0.003860
     51      -0.059664   0.129318   0.004750   0.159385   0.268451   0.024415
     52       0.008237   0.167879   0.006339  -0.133136  -0.228087   0.052152
     53      -0.006906   0.017680   0.000667   0.016636   0.027957   0.003631
     54      -0.005193   0.002078   0.036907   0.081417  -0.063345  -0.302881
     55       0.002255  -0.006085   0.077806  -0.137512   0.076864  -0.072541
     56       0.002419  -0.007715   0.110972  -0.173005   0.094059  -0.145702
     57       0.002053  -0.003202   0.112208   0.136527  -0.090503  -0.205796
     58       0.000050  -0.000432  -0.112095  -0.129182   0.074664   0.024174
     59       0.000538  -0.000630  -0.136153  -0.156669   0.089289   0.002674
     60      -0.000171   0.004539  -0.199063  -0.014476   0.018351   0.246943
     61      -0.001956   0.005527   0.059019   0.172327  -0.093250   0.075467
     62      -0.002782   0.008192   0.049972   0.233259  -0.124546   0.142612
     63       0.002661   0.006785  -0.004023   0.001064  -0.016757  -0.010385
     64      -0.055490  -0.023067   0.015740  -0.006515  -0.012157   0.020491
     65       0.013632   0.009183  -0.002558   0.006393   0.004186  -0.004294
     66      -0.017757   0.030044  -0.081267  -0.118721   0.099188  -0.081484
     67       0.053322   0.064127  -0.020310   0.052936   0.020330  -0.013042
     68      -0.007973  -0.009551  -0.018954  -0.018840  -0.000531  -0.007924
     69       0.227902   0.031112   0.004057  -0.010764  -0.023272   0.006855
     70      -0.564633  -0.232733  -0.009977  -0.040721  -0.067203   0.020748
     71       0.310928   0.104878   0.004778   0.015512   0.022679  -0.007554
     72       0.109019  -0.023483  -0.010678  -0.046698  -0.086914  -0.002884
     73      -0.429583  -0.193792  -0.005080  -0.067727  -0.114687   0.016079
     74      -0.525302  -0.171719  -0.004330  -0.029280  -0.045641   0.012487
     75       0.030806   0.409169   0.006636  -0.012119  -0.011091   0.078971
     76      -0.025531   0.310922   0.007260   0.086402   0.158528   0.023798
     77       0.004902   0.055663   0.000958   0.001211   0.003509   0.010542
     78      -0.001316   0.010887  -0.322225   0.340654  -0.208108   0.002926
     79       0.004434  -0.009176   0.213846  -0.186740   0.117572   0.091848
     80       0.004388  -0.010219   0.228758  -0.186308   0.121068   0.126099
     81      -0.023257   0.000915  -0.002113  -0.001269   0.003869   0.005787
     82      -0.025331  -0.002004  -0.001963  -0.002999   0.001216   0.004575
     83      -0.023845  -0.005508  -0.001845  -0.004287  -0.002820   0.003037
     84       0.007951  -0.002003  -0.463207  -0.003007  -0.029593  -0.358680
     85       0.003813  -0.001903   0.009152   0.060427  -0.038765  -0.039831
     86       0.003438  -0.005655  -0.053923   0.091742  -0.065241  -0.104003
     87       0.016395   0.061991   0.000704  -0.086483  -0.139688  -0.019200
     88      -0.124072   0.433215   0.017194  -0.123294  -0.211984   0.092791
     89      -0.001110   0.015406   0.000481  -0.013030  -0.021195  -0.000270
     90      -0.001928   0.010214  -0.437615  -0.222193   0.131972   0.088899
     91       0.002770  -0.008665   0.207553   0.084278  -0.058724  -0.156122
     92       0.003588  -0.010747   0.219604   0.082723  -0.061279  -0.203584
     93      -0.012594   0.077672   0.001668  -0.027978  -0.042291  -0.012987
     94       0.064937  -0.398307  -0.009570   0.162995   0.245301   0.083791
     95      -0.000287   0.002118   0.000214   0.001251   0.002319   0.000046
     96      -0.083803  -0.085900   0.000121   0.200469   0.338791  -0.024013
     97      -0.065992  -0.092190  -0.000878   0.164189   0.276603  -0.021029
     98      -0.010923  -0.011834   0.000158   0.026331   0.044987  -0.003012
     99      -0.003468  -0.008855   0.145775  -0.053586   0.014147  -0.232778
    100       0.002875   0.007708  -0.145750   0.052652  -0.016791   0.209833
    101       0.003108   0.009599  -0.176780   0.065063  -0.020548   0.249199
    102       0.007304  -0.021698   0.121135  -0.258386   0.127656  -0.278429
    103      -0.003053   0.009597  -0.039867   0.112958  -0.055226   0.119107
    104      -0.003024   0.009672  -0.035260   0.113308  -0.055006   0.117168
                 90         91         92         93         94         95    
      0       0.001851   0.000422  -0.001373   0.000849   0.000134  -0.000104
      1      -0.024257   0.000661  -0.000871   0.000667  -0.000040  -0.000007
      2      -0.004942   0.000302  -0.000043  -0.000168  -0.000141  -0.000015
      3      -0.002300  -0.000987  -0.000179   0.000131   0.000335  -0.000011
      4       0.001267  -0.001577  -0.000280  -0.000162   0.000132   0.000040
      5      -0.001086  -0.000051  -0.000186  -0.000451  -0.000274  -0.000019
      6      -0.027742   0.000022   0.000064   0.000075   0.000125  -0.000005
      7      -0.043026   0.000000  -0.000223  -0.000334   0.000260   0.000013
      8      -0.004326   0.000004  -0.000001  -0.000001  -0.000079  -0.000000
      9      -0.014758   0.000040   0.000042   0.000099  -0.000025  -0.000018
     10      -0.023086   0.000028   0.000053   0.000058  -0.000018  -0.000010
     11      -0.001908   0.000010   0.000015   0.000002  -0.000013  -0.000002
     12      -0.011583  -0.000014   0.000016  -0.000017   0.000016   0.000011
     13      -0.002692  -0.000012   0.000003   0.000004  -0.000006  -0.000096
     14      -0.005291   0.000011   0.000005   0.000003  -0.000015  -0.000130
     15       0.008661  -0.000035   0.000034  -0.000050   0.000015   0.000391
     16       0.004682   0.000011   0.000001   0.000005  -0.000007  -0.000289
     17       0.007825   0.000022  -0.000014   0.000017  -0.000008  -0.000326
     18       0.008085   0.014926   0.002947  -0.003182  -0.002750  -0.000005
     19      -0.002114  -0.011804  -0.001583   0.003992   0.001500  -0.000013
     20       0.003826  -0.076232  -0.010621   0.020396   0.013078   0.000099
     21      -0.036963  -0.004854   0.013952  -0.011799  -0.001655  -0.000002
     22      -0.001205   0.002559  -0.008503   0.007368   0.001216   0.000031
     23      -0.005036   0.020589  -0.057643   0.051124   0.005386   0.000225
     24       0.021126   0.000308  -0.012220  -0.016390   0.021410   0.000020
     25       0.023239   0.001117   0.034775   0.042493  -0.032901  -0.000016
     26       0.002425   0.013429   0.033018   0.022740   0.081337   0.000027
     27      -0.143476   0.000333   0.000220   0.000650   0.000135  -0.000028
     28      -0.183363  -0.000281   0.000753   0.000653  -0.000050   0.000017
     29      -0.019901   0.000102  -0.000258  -0.000181   0.000018   0.000000
     30       0.112127  -0.000130   0.001063  -0.000382  -0.000185   0.000104
     31       0.284404   0.000110  -0.000969  -0.000641   0.000360  -0.000012
     32       0.020939  -0.000139   0.000293  -0.000119   0.000422   0.000007
     33       0.058657   0.000302  -0.000240   0.000204  -0.000029  -0.000377
     34       0.018647   0.000114   0.000156  -0.000131  -0.000056   0.000406
     35       0.038041   0.000238  -0.000447   0.000290  -0.000043   0.000508
     36       0.271500   0.000078  -0.000699  -0.000891   0.000354   0.000029
     37       0.234550   0.000152   0.000436   0.000570  -0.000570  -0.000010
     38       0.035518  -0.000007  -0.000056   0.000008  -0.000218   0.000003
     39      -0.248573   0.000131  -0.000163   0.000342   0.000037   0.000001
     40      -0.195841   0.000135   0.000134   0.000289  -0.000037  -0.000070
     41      -0.033085   0.000036  -0.000034   0.000076   0.000002  -0.000001
     42      -0.041498   0.000306  -0.000253   0.000142  -0.000051  -0.002200
     43      -0.001692   0.000050   0.000190  -0.000190  -0.000083  -0.001601
     44      -0.009234   0.000294   0.000085  -0.000155  -0.000114  -0.002442
     45      -0.088469   0.000025  -0.000641   0.000613   0.000097  -0.001831
     46      -0.011448  -0.000074   0.000407  -0.000428  -0.000070   0.008550
     47      -0.029288  -0.000139   0.000756  -0.000732  -0.000115   0.011351
     48      -0.102248   0.000103   0.000197   0.000302  -0.000252  -0.000073
     49      -0.281232  -0.000059   0.000109   0.000026   0.000060  -0.000001
     50      -0.016702   0.000034   0.000052   0.000038   0.000059  -0.000008
     51       0.145644  -0.000113  -0.000008  -0.000238   0.000007   0.000025
     52       0.160658  -0.000005  -0.000140  -0.000098   0.000023   0.000011
     53       0.019392  -0.000005  -0.000039   0.000004   0.000024   0.000004
     54       0.085979  -0.000053  -0.000102   0.000107   0.000008   0.000667
     55       0.027502   0.000036  -0.000015  -0.000016   0.000001   0.000166
     56       0.050565   0.000060  -0.000038   0.000009   0.000008   0.000330
     57       0.057919  -0.000076   0.000237  -0.000256   0.000022  -0.055996
     58      -0.004196   0.000008  -0.000092   0.000064   0.000028  -0.032754
     59       0.002734  -0.000027   0.000013  -0.000032   0.000024  -0.054077
     60      -0.074780   0.000033  -0.000049   0.000076  -0.000017  -0.003140
     61      -0.026856  -0.000027   0.000085  -0.000078  -0.000002   0.001984
     62      -0.048570  -0.000052   0.000134  -0.000120  -0.000005   0.002228
     63      -0.017336  -0.159897  -0.021700   0.037958   0.027216   0.000098
     64       0.001884   0.166988   0.021145  -0.039540  -0.023492  -0.000101
     65      -0.003155   0.919550   0.125574  -0.226437  -0.142191  -0.001032
     66       0.087770   0.054681  -0.146020   0.127542   0.012985   0.001308
     67       0.038242  -0.045395   0.113062  -0.097498  -0.008774  -0.000681
     68       0.012562  -0.257635   0.691125  -0.608658  -0.066993  -0.003458
     69       0.006563   0.008984   0.050902   0.052227   0.047007   0.000035
     70       0.081180  -0.057312  -0.254178  -0.244792  -0.198358  -0.000104
     71      -0.034034  -0.121585  -0.576176  -0.558016  -0.399590  -0.000126
     72      -0.013094  -0.021214   0.083945   0.137880  -0.304149  -0.000274
     73       0.044554   0.047093  -0.161576  -0.265776   0.583103   0.000368
     74       0.047462  -0.043206   0.181460   0.282537  -0.575844  -0.000346
     75       0.323416   0.000268   0.000516   0.000384  -0.000174  -0.000373
     76       0.131027  -0.000464   0.000072  -0.000737   0.000157   0.000726
     77       0.042655  -0.000138   0.000141   0.000041  -0.000179  -0.000045
     78      -0.018874  -0.003869   0.000352   0.000837   0.001441   0.029615
     79      -0.019074  -0.001170   0.000534  -0.000175   0.000673   0.017574
     80      -0.023892  -0.003697   0.001012  -0.000143   0.001316   0.027292
     81       0.008942  -0.003847  -0.001428  -0.001877   0.002650  -0.000206
     82       0.009087  -0.001901  -0.000644  -0.001673   0.004768  -0.000218
     83       0.006655  -0.000780   0.002348   0.000405   0.000371  -0.000117
     84       0.105944  -0.000771   0.005177  -0.005126  -0.000871   0.050909
     85       0.009854   0.000323  -0.004888   0.005354   0.000899  -0.109878
     86       0.028587   0.001270  -0.007888   0.008007   0.001329  -0.140397
     87      -0.098407  -0.000412  -0.001512  -0.001041   0.001830   0.000686
     88       0.319854   0.000172   0.000369   0.000240  -0.000241  -0.000012
     89      -0.005026  -0.000089  -0.000096  -0.000156   0.000348   0.000077
     90      -0.021538   0.000191   0.000909  -0.000677  -0.000506   0.653708
     91       0.044235   0.000243   0.000396  -0.000235  -0.000313   0.376007
     92       0.058150   0.000344   0.000434  -0.000193  -0.000477   0.622496
     93      -0.056770  -0.000132   0.000650   0.000926  -0.001042  -0.000063
     94       0.362526   0.000320  -0.000591  -0.000669   0.000984  -0.000060
     95       0.000110  -0.000121  -0.000013   0.000149   0.000284  -0.000011
     96      -0.031846  -0.000177  -0.000122  -0.000484   0.000126   0.000108
     97      -0.031915   0.000028   0.000233   0.000106  -0.000054  -0.000015
     98      -0.004312  -0.000084  -0.000089   0.000047   0.000008   0.000010
     99       0.066752   0.000068  -0.000094   0.000112  -0.000110  -0.000609
    100      -0.060884   0.000168   0.000180  -0.000234  -0.000071  -0.000367
    101      -0.073130  -0.000130   0.000137  -0.000180   0.000030  -0.000587
    102       0.088332  -0.000007   0.000060  -0.000079  -0.000024   0.009250
    103      -0.037132  -0.000052   0.000055  -0.000093   0.000026   0.000097
    104      -0.036712  -0.000105   0.000084  -0.000158   0.000065   0.001481
                 96         97         98         99        100        101    
      0      -0.000247  -0.000103   0.000262   0.000168  -0.000032  -0.000006
      1       0.000214  -0.000034   0.000224  -0.000003  -0.000009   0.000006
      2       0.000304  -0.000002   0.000065  -0.000052  -0.000026   0.000009
      3       0.000014   0.000035   0.000037  -0.000080  -0.017930  -0.000057
      4      -0.000000  -0.000001   0.000000   0.000050   0.052688   0.000197
      5       0.000038   0.000007   0.000008  -0.000102  -0.028244  -0.000096
      6      -0.000002   0.000145   0.000013   0.000004   0.000310   0.000490
      7       0.000002   0.000569   0.000051  -0.000008   0.000052   0.000046
      8       0.000001   0.000034   0.000001  -0.000001   0.000042   0.000070
      9       0.000006   0.000206  -0.000541   0.000008  -0.000283   0.000296
     10       0.000002  -0.000400  -0.000226   0.000003   0.000379  -0.000441
     11       0.000001   0.000019  -0.000061  -0.000001  -0.000030   0.000033
     12      -0.000443   0.000003   0.000012   0.000040  -0.000070   0.033364
     13       0.000246  -0.000003  -0.000007   0.000001  -0.000031   0.014720
     14       0.000243  -0.000004  -0.000005   0.000005  -0.000050   0.024701
     15      -0.000160   0.000007   0.000010  -0.000191  -0.000123   0.025567
     16       0.000037  -0.000003  -0.000005   0.000178  -0.000100   0.019115
     17       0.000027  -0.000003  -0.000005   0.000235  -0.000153   0.030020
     18       0.000145  -0.000046  -0.000079   0.000130  -0.001627  -0.000027
     19      -0.000076   0.000064  -0.000003   0.000136   0.000439  -0.000017
     20      -0.000513   0.000055   0.000038   0.000205  -0.001515  -0.000010
     21      -0.000473  -0.000037   0.000184  -0.000441   0.000134   0.000015
     22      -0.000355   0.000040  -0.000065   0.000277  -0.000144  -0.000015
     23      -0.000378   0.000022  -0.000040   0.001296   0.000382  -0.000048
     24      -0.000022   0.000150  -0.000061  -0.000033   0.000133   0.000002
     25      -0.000029  -0.000225  -0.000071  -0.000010  -0.000612   0.000001
     26      -0.000085   0.000085  -0.000006   0.000065   0.000207  -0.000007
     27      -0.000043  -0.000730   0.000396   0.000010  -0.000147  -0.000011
     28       0.000004   0.000369  -0.000303  -0.000000   0.000091   0.000004
     29      -0.000017  -0.000085   0.000059   0.000005  -0.000002  -0.000000
     30       0.000091   0.000372  -0.002880  -0.000046  -0.000011   0.000007
     31       0.000060   0.000399  -0.002295   0.000046   0.000011  -0.000009
     32       0.000062   0.000055  -0.000430  -0.000020  -0.000005  -0.000003
     33      -0.001497   0.000001  -0.000009  -0.002890   0.000031  -0.000048
     34       0.001253  -0.000008   0.000035  -0.000736  -0.000043   0.000070
     35       0.001636  -0.000005   0.000021  -0.001508  -0.000024   0.000124
     36       0.000008  -0.000928  -0.000026  -0.000011   0.000060   0.000024
     37      -0.000001  -0.004296  -0.000863   0.000004  -0.000081   0.000003
     38      -0.000005  -0.000185  -0.000020   0.000001   0.000018   0.000002
     39      -0.000107   0.007060  -0.041995   0.000116   0.000002  -0.000005
     40       0.000176  -0.013882   0.074189  -0.000164  -0.000018   0.000011
     41      -0.000018   0.000730  -0.004480   0.000012   0.000004   0.000005
     42      -0.058154   0.000041   0.000167  -0.000331  -0.000009  -0.000190
     43      -0.033838   0.000023   0.000091  -0.000915  -0.000005  -0.000497
     44      -0.053359   0.000035   0.000158  -0.001245   0.000003  -0.000696
     45       0.001231  -0.000007  -0.000047  -0.025170   0.000004   0.000173
     46      -0.001010   0.000018   0.000114   0.050309  -0.000016  -0.000071
     47      -0.001143   0.000023   0.000145   0.064640  -0.000022  -0.000083
     48       0.000100   0.084842   0.015438  -0.000050  -0.000008  -0.000014
     49      -0.000004  -0.001638  -0.001105   0.000001  -0.000005   0.000013
     50       0.000012   0.009594   0.001731  -0.000006  -0.000003   0.000000
     51       0.000007  -0.001341   0.004113  -0.000022  -0.000008   0.000029
     52       0.000007   0.003582   0.002103  -0.000003   0.000039  -0.000012
     53      -0.000002  -0.000102   0.000521   0.000001   0.000001   0.000001
     54       0.003337  -0.000002  -0.000008  -0.000148  -0.000007   0.001278
     55      -0.001823   0.000006   0.000014  -0.000101   0.000005   0.000017
     56      -0.001923   0.000008   0.000017  -0.000162   0.000002   0.000205
     57       0.002235  -0.000028  -0.000026   0.013716   0.000015  -0.000849
     58       0.001498  -0.000018  -0.000023   0.005744   0.000004  -0.000104
     59       0.002422  -0.000030  -0.000031   0.009927  -0.000005  -0.000276
     60       0.000600  -0.000013  -0.000018   0.000806  -0.000008   0.000044
     61       0.000171   0.000001   0.000002  -0.000875   0.000003   0.000767
     62       0.000351   0.000000  -0.000003  -0.001127   0.000002   0.001053
     63      -0.000669   0.000121   0.000136   0.000057  -0.001792  -0.000008
     64       0.000664  -0.000153  -0.000100  -0.000328  -0.002856  -0.000012
     65       0.005290  -0.000521  -0.000495  -0.002613  -0.000291   0.000043
     66       0.002239   0.000094  -0.000201   0.005695   0.000085   0.000006
     67      -0.000844  -0.000102  -0.000055  -0.002712  -0.000601   0.000071
     68      -0.001250  -0.000403   0.000242  -0.013335  -0.000164   0.000161
     69      -0.000208   0.000237   0.000247   0.000211   0.000846  -0.000007
     70       0.000532   0.000437   0.000703  -0.000433  -0.000008   0.000033
     71       0.001018   0.000724   0.000685  -0.000849  -0.000204   0.000055
     72       0.000567  -0.000671   0.000122   0.000291   0.000823  -0.000024
     73      -0.000652   0.001562   0.001139  -0.000202   0.001847   0.000015
     74       0.000588  -0.001567  -0.000646   0.000104  -0.002595  -0.000003
     75       0.001306  -0.086785   0.479780  -0.001072  -0.000047   0.000005
     76      -0.002318   0.155972  -0.852972   0.001816  -0.000024  -0.000004
     77       0.000192  -0.009318   0.051550  -0.000100   0.000003  -0.000047
     78       0.672769  -0.000484  -0.001805   0.008999   0.000059   0.001042
     79       0.395745  -0.000281  -0.001024   0.006633   0.000124   0.001947
     80       0.617308  -0.000391  -0.001766   0.009824   0.000092   0.002570
     81       0.000065  -0.000123  -0.000205  -0.000215   0.302754   0.001071
     82       0.000138   0.000101  -0.000031  -0.000688  -0.830744  -0.003012
     83      -0.000112  -0.000084  -0.000023  -0.000186   0.462792   0.001653
     84      -0.007732   0.000090   0.000674   0.284125  -0.000090  -0.000466
     85       0.013457  -0.000209  -0.001414  -0.577923   0.000192   0.000491
     86       0.016846  -0.000267  -0.001852  -0.737358   0.000505   0.000650
     87      -0.001201  -0.973621  -0.177504   0.000637  -0.000144   0.000019
     88       0.000038   0.020313   0.004885  -0.000026  -0.000082  -0.000005
     89      -0.000135  -0.109767  -0.020027   0.000072  -0.000038  -0.000005
     90      -0.026995   0.000349   0.000427  -0.124963  -0.000033   0.003257
     91      -0.015362   0.000197   0.000228  -0.068870   0.000001   0.000555
     92      -0.025497   0.000328   0.000381  -0.114386  -0.000017   0.001276
     93       0.000008  -0.006696  -0.000693   0.000027  -0.005146  -0.007903
     94       0.000021   0.005323   0.000804   0.000019  -0.000609  -0.000833
     95      -0.000007  -0.000957  -0.000086   0.000016  -0.000721  -0.001132
     96      -0.000042  -0.001598  -0.001491  -0.000035   0.004503  -0.004915
     97       0.000016   0.000266  -0.008540   0.000012  -0.006277   0.006969
     98      -0.000015  -0.000158  -0.000325   0.000017   0.000469  -0.000550
     99       0.000442  -0.000021  -0.000095  -0.000116   0.001122  -0.545072
    100       0.005713  -0.000001  -0.000017  -0.000099   0.000516  -0.229365
    101       0.007741   0.000019  -0.000079  -0.000140   0.000828  -0.388478
    102      -0.001248   0.000011   0.000019  -0.001677   0.002017  -0.398965
    103      -0.000348   0.000023   0.000040  -0.000729   0.001604  -0.312768
    104      -0.000658   0.000038   0.000043  -0.001306   0.002490  -0.488196
                102        103        104    
      0       0.000087   0.000055  -0.000041
      1       0.000030   0.000028  -0.000033
      2       0.000019   0.000006   0.000001
      3       0.000016  -0.000116   0.000088
      4      -0.000010   0.000413  -0.000302
      5       0.000003  -0.000214   0.000153
      6      -0.000648   0.002375   0.061329
      7      -0.000057   0.000196   0.004922
      8      -0.000090   0.000334   0.008625
      9       0.005997   0.034259  -0.001275
     10      -0.008826  -0.050602   0.001951
     11       0.000618   0.003512  -0.000129
     12       0.032513  -0.005951   0.000305
     13       0.014551  -0.002676   0.000145
     14       0.024345  -0.004468   0.000241
     15      -0.025595   0.004237  -0.000654
     16      -0.018873   0.003107  -0.000472
     17      -0.029695   0.004894  -0.000744
     18       0.000007  -0.000044   0.000016
     19       0.000024   0.000005   0.000008
     20      -0.000018   0.000000   0.000019
     21      -0.000133  -0.000004   0.000027
     22      -0.000064  -0.000015   0.000019
     23      -0.000023  -0.000009   0.000006
     24      -0.000008  -0.000011  -0.000036
     25      -0.000019  -0.000039   0.000077
     26       0.000008   0.000005  -0.000060
     27       0.000031  -0.000013  -0.000816
     28      -0.000001   0.000070   0.000078
     29      -0.000000  -0.000009  -0.000080
     30      -0.000079  -0.000007   0.000183
     31      -0.000028  -0.000180   0.000006
     32      -0.000009  -0.000003   0.000003
     33       0.000143  -0.000031   0.000007
     34       0.000024  -0.000000  -0.000003
     35       0.000034  -0.000006   0.000001
     36      -0.000027   0.000189   0.002211
     37      -0.000030  -0.000052   0.001468
     38      -0.000006   0.000020   0.000322
     39      -0.000005  -0.000211  -0.000095
     40       0.000235   0.001350   0.000069
     41       0.000008  -0.000014  -0.000009
     42      -0.000548   0.000107  -0.000012
     43      -0.000561   0.000100  -0.000005
     44      -0.000817   0.000154  -0.000009
     45      -0.000062   0.000016  -0.000008
     46      -0.000050   0.000006   0.000001
     47      -0.000105   0.000015   0.000002
     48      -0.000052  -0.000459  -0.001262
     49       0.000116   0.000679   0.000508
     50      -0.000003  -0.000042  -0.000130
     51       0.000404   0.002444   0.000085
     52      -0.000215  -0.001153  -0.000078
     53       0.000043   0.000273   0.000001
     54       0.002418  -0.000435   0.000033
     55       0.000179  -0.000016  -0.000006
     56       0.000612  -0.000089  -0.000003
     57       0.000972  -0.000164   0.000026
     58       0.000306  -0.000056   0.000009
     59       0.000580  -0.000102   0.000016
     60      -0.000370   0.000046   0.000010
     61      -0.001437   0.000245  -0.000032
     62      -0.002018   0.000340  -0.000042
     63      -0.000026   0.000019   0.000052
     64      -0.000027  -0.000052  -0.000016
     65       0.000090  -0.000085  -0.000078
     66       0.000223  -0.000011  -0.000013
     67      -0.000014   0.000066  -0.000045
     68      -0.000034   0.000073  -0.000036
     69       0.000051   0.000202  -0.000070
     70       0.000088   0.000282  -0.000412
     71       0.000053   0.000238  -0.000265
     72       0.000146   0.000079   0.000066
     73      -0.000018   0.000250  -0.001006
     74      -0.000018  -0.000190   0.000949
     75       0.000052   0.000637   0.000245
     76      -0.000837  -0.005253  -0.000083
     77      -0.000035   0.000086   0.000024
     78       0.001303  -0.000311   0.000062
     79       0.002570  -0.000434   0.000018
     80       0.003427  -0.000625   0.000014
     81       0.000011   0.002206  -0.001622
     82       0.000104  -0.006386   0.004644
     83       0.000005   0.003533  -0.002564
     84       0.000411  -0.000091   0.000030
     85      -0.000213   0.000037  -0.000011
     86      -0.000213   0.000013  -0.000009
     87      -0.000009   0.000129   0.004883
     88       0.000133   0.000564  -0.001986
     89       0.000002   0.000062   0.000528
     90      -0.004308   0.000783  -0.000157
     91      -0.000708   0.000146  -0.000038
     92      -0.001679   0.000319  -0.000079
     93       0.010396  -0.038526  -0.982320
     94       0.001085  -0.003983  -0.100590
     95       0.001459  -0.005455  -0.138904
     96      -0.099206  -0.567733   0.021150
     97       0.139652   0.799627  -0.029906
     98      -0.010293  -0.058684   0.002182
     99      -0.533256   0.097663  -0.005061
    100      -0.224507   0.041200  -0.002162
    101      -0.380232   0.069665  -0.003661
    102       0.395812  -0.065292   0.009969
    103       0.310109  -0.051115   0.007782
    104       0.484081  -0.079822   0.012152


-----------
IR SPECTRUM
-----------

 Mode   freq       eps      Int      T**2         TX        TY        TZ
       cm**-1   L/(mol*cm) km/mol    a.u.
----------------------------------------------------------------------------
  6:     24.38   0.000060    0.30  0.000764  (-0.014980  0.021415 -0.009008)
  7:     32.84   0.000092    0.47  0.000877  ( 0.026656 -0.003041 -0.012532)
  8:     53.58   0.000023    0.12  0.000137  ( 0.008869 -0.007609 -0.000219)
  9:     70.94   0.000064    0.32  0.000280  (-0.002255  0.007960  0.014556)
 10:    126.16   0.000066    0.33  0.000163  ( 0.010792  0.001780 -0.006605)
 11:    163.43   0.000177    0.90  0.000339  (-0.000861  0.009795 -0.015558)
 12:    177.43   0.001413    7.14  0.002485  (-0.035543  0.004986  0.034601)
 13:    210.83   0.003927   19.85  0.005813  ( 0.059206  0.007490 -0.047450)
 14:    214.29   0.000288    1.45  0.000419  (-0.017355  0.007589 -0.007759)
 15:    226.51   0.000239    1.21  0.000329  (-0.017712 -0.003013 -0.002503)
 16:    235.09   0.010750   54.33  0.014270  (-0.087446  0.018192  0.079324)
 17:    253.54   0.002970   15.01  0.003656  (-0.030584 -0.001354  0.052138)
 18:    259.42   0.003427   17.32  0.004122  (-0.032255 -0.010154  0.054577)
 19:    310.14   0.002665   13.47  0.002682  ( 0.038466 -0.031496 -0.014497)
 20:    317.18   0.000624    3.15  0.000614  (-0.006454 -0.014346  0.019147)
 21:    325.50   0.003467   17.52  0.003324  (-0.006787 -0.007790  0.056718)
 22:    336.96   0.021939  110.87  0.020318  (-0.012949 -0.126577  0.064253)
 23:    345.12   0.000541    2.74  0.000490  ( 0.003195  0.017894 -0.012616)
 24:    363.08   0.018620   94.10  0.016004  ( 0.013256  0.083059 -0.094494)
 25:    366.96   0.011503   58.13  0.009782  (-0.009202  0.009229  0.098041)
 26:    387.20   0.007463   37.72  0.006015  (-0.006885 -0.057122  0.052006)
 27:    393.23   0.027580  139.38  0.021887  (-0.031412  0.004541  0.144498)
 28:    418.97   0.004687   23.68  0.003491  (-0.045028 -0.033585  0.018309)
 29:    437.22   0.001926    9.73  0.001375  ( 0.023884 -0.023768  0.015467)
 30:    468.53   0.000082    0.41  0.000054  ( 0.005737 -0.003816  0.002643)
 31:    481.09   0.000442    2.23  0.000287  ( 0.007511 -0.007367  0.013271)
 32:    515.32   0.000703    3.55  0.000426  (-0.010252 -0.017306  0.004601)
 33:    530.76   0.000577    2.91  0.000339  ( 0.015843 -0.002201 -0.009119)
 34:    557.40   0.001595    8.06  0.000893  (-0.026591 -0.008601 -0.010565)
 35:    565.95   0.000135    0.68  0.000075  (-0.004316  0.004210 -0.006191)
 36:    592.91   0.000526    2.66  0.000277  (-0.008896  0.011192  0.008499)
 37:    620.31   0.000112    0.57  0.000057  (-0.000080  0.006994  0.002763)
 38:    632.56   0.001216    6.14  0.000600  ( 0.004217 -0.009639  0.022116)
 39:    638.03   0.001110    5.61  0.000543  ( 0.004609  0.002368 -0.022720)
 40:    663.09   0.004371   22.09  0.002057  (-0.035101 -0.028703 -0.001119)
 41:    675.53   0.002328   11.77  0.001075  ( 0.030756 -0.003104  0.010951)
 42:    715.60   0.000238    1.20  0.000104  (-0.004897 -0.000070  0.008943)
 43:    718.49   0.000250    1.26  0.000108  (-0.008115 -0.006216 -0.001997)
 44:    773.82   0.002526   12.77  0.001019  ( 0.023900 -0.003320 -0.020895)
 45:    790.12   0.002667   13.48  0.001053  (-0.000204  0.000544 -0.032452)
 46:    795.17   0.009826   49.66  0.003856  (-0.013088 -0.002547  0.060650)
 47:    803.41   0.004106   20.75  0.001595  ( 0.014984 -0.024263  0.027961)
 48:    809.04   0.001578    7.97  0.000609  (-0.009444 -0.020891  0.009107)
 49:    827.25   0.000343    1.73  0.000129  (-0.000452 -0.005886 -0.009715)
 50:    862.78   0.002747   13.88  0.000994  ( 0.003259 -0.025927  0.017626)
 51:    899.46   0.000580    2.93  0.000201  ( 0.012400  0.002814 -0.006283)
 52:    906.55   0.000086    0.43  0.000030  ( 0.000334 -0.005320  0.001068)
 53:    998.31   0.002016   10.19  0.000630  (-0.001535  0.021127  0.013472)
 54:   1007.22   0.000561    2.83  0.000174  (-0.006978 -0.010787 -0.002942)
 55:   1052.37   0.020845  105.34  0.006181  (-0.039618 -0.066070 -0.015697)
 56:   1054.86   0.005296   26.76  0.001567  (-0.037349  0.003201 -0.012708)
 57:   1065.79   0.002343   11.84  0.000686  ( 0.006211 -0.025375 -0.001905)
 58:   1099.97   0.036631  185.12  0.010392  ( 0.100213 -0.014398  0.011933)
 59:   1122.91   0.023874  120.65  0.006635  (-0.024534  0.077446  0.005905)
 60:   1136.10   0.015049   76.05  0.004134  (-0.048120 -0.017047 -0.039084)
 61:   1187.11   0.043482  219.74  0.011431  (-0.077507 -0.073590 -0.002772)
 62:   1191.44   0.013972   70.61  0.003659  ( 0.050170  0.029828  0.015896)
 63:   1198.60   0.006409   32.39  0.001669  ( 0.028573  0.028278  0.007252)
 64:   1207.39   0.009567   48.35  0.002473  (-0.048092  0.007799  0.009946)
 65:   1208.88   0.043219  218.41  0.011157  ( 0.100865 -0.026102 -0.017367)
 66:   1215.86   0.044553  225.15  0.011435  (-0.069264  0.054112  0.060905)
 67:   1219.64   0.001534    7.75  0.000392  ( 0.015003 -0.004877  0.011982)
 68:   1248.30   0.032006  161.74  0.008001  (-0.017582 -0.087458 -0.006566)
 69:   1257.13   0.018470   93.34  0.004585  ( 0.045336  0.050088  0.004549)
 70:   1278.52   0.028102  142.02  0.006859  (-0.080453  0.015370 -0.012258)
 71:   1297.77   0.003829   19.35  0.000921  ( 0.021103  0.014142  0.016597)
 72:   1331.47   0.026048  131.64  0.006105  ( 0.065203 -0.032086 -0.028705)
 73:   1334.55   0.001413    7.14  0.000330  (-0.002379 -0.010316 -0.014775)
 74:   1342.04   0.002345   11.85  0.000545  (-0.010205  0.018126  0.010614)
 75:   1359.26   0.011978   60.53  0.002750  ( 0.051088 -0.007182 -0.009408)
 76:   1379.09   0.000300    1.51  0.000068  (-0.003607  0.007336 -0.001004)
 77:   1389.55   0.000851    4.30  0.000191  ( 0.007647 -0.011233  0.002536)
 78:   1397.43   0.014258   72.05  0.003184  (-0.053089  0.013221  0.013810)
 79:   1412.25   0.003098   15.66  0.000685  ( 0.022366 -0.010360 -0.008774)
 80:   1420.03   0.008695   43.94  0.001911  ( 0.036386 -0.017104 -0.017156)
 81:   1449.93   0.003038   15.35  0.000654  ( 0.015887  0.017506  0.009749)
 82:   1492.24   0.010483   52.98  0.002192  ( 0.011719  0.024831  0.037926)
 83:   1511.54   0.019417   98.13  0.004009  ( 0.043293 -0.045850  0.005678)
 84:   1519.37   0.001909    9.64  0.000392  ( 0.007306 -0.018152 -0.003022)
 85:   1562.75   0.026161  132.21  0.005224  ( 0.066565  0.027435  0.006354)
 86:   1580.91   0.020731  104.77  0.004092  (-0.056646  0.023643  0.018015)
 87:   1660.96   0.011260   56.90  0.002116  ( 0.033211 -0.025784 -0.018647)
 88:   1665.26   0.031495  159.16  0.005902  ( 0.073076 -0.010960  0.021019)
 89:   1679.41   0.007844   39.64  0.001457  ( 0.030857  0.022416  0.001702)
 90:   1681.32   0.046967  237.35  0.008717  ( 0.042493  0.082829  0.007140)
 91:   2995.60   0.002994   15.13  0.000312  ( 0.005530 -0.004386 -0.016187)
 92:   3021.13   0.002239   11.31  0.000231  ( 0.000958  0.008585 -0.012514)
 93:   3029.12   0.011390   57.56  0.001173  (-0.001482  0.022078  0.026149)
 94:   3064.64   0.005100   25.78  0.000519  ( 0.002195 -0.008898  0.020865)
 95:   3164.71   0.005380   27.19  0.000530  (-0.021245 -0.003318 -0.008253)
 96:   3185.33   0.001586    8.01  0.000155  (-0.000859 -0.007010 -0.010269)
 97:   3196.42   0.001548    7.82  0.000151  ( 0.011215 -0.004903  0.001162)
 98:   3198.51   0.001174    5.93  0.000115  ( 0.002828  0.010321  0.000156)
 99:   3208.94   0.001534    7.75  0.000149  (-0.001002  0.006407  0.010349)
100:   3737.33   0.003505   17.71  0.000293  (-0.000486 -0.016203  0.005465)
101:   3745.05   0.014088   71.20  0.001174  (-0.024050 -0.012235 -0.021115)
102:   3745.94   0.002598   13.13  0.000216  ( 0.013631 -0.001164 -0.005411)
103:   3746.27   0.009722   49.13  0.000810  (-0.003792  0.028187  0.000974)
104:   3747.82   0.009480   47.91  0.000789  (-0.026607  0.008336 -0.003460)

* The epsilon (eps) is given for a Dirac delta lineshape.
** The dipole moment derivative (T) already includes vibrational overlap.

The first frequency considered to be a vibration is 6
The total number of vibrations considered is 99


--------------------------
THERMOCHEMISTRY AT 298.15K
--------------------------

Temperature         ...   298.15 K
Pressure            ...     1.00 atm
Total Mass          ...   290.27 AMU
Quasi RRHO          ...     True
Cut-Off Frequency   ...     1.00 cm^-1

Throughout the following assumptions are being made:
  (1) The electronic state is orbitally nondegenerate
  (2) There are no thermally accessible electronically excited states
  (3) Hindered rotations indicated by low frequency modes are not
      treated as such but are treated as vibrations and this may
      cause some error
  (4) All equations used are the standard statistical mechanics
      equations for an ideal gas
  (5) All vibrations are strictly harmonic

freq.      24.38  E(vib)   ...       0.56 
freq.      32.84  E(vib)   ...       0.55 
freq.      53.58  E(vib)   ...       0.52 
freq.      70.94  E(vib)   ...       0.50 
freq.     126.16  E(vib)   ...       0.43 
freq.     163.43  E(vib)   ...       0.39 
freq.     177.43  E(vib)   ...       0.37 
freq.     210.83  E(vib)   ...       0.34 
freq.     214.29  E(vib)   ...       0.34 
freq.     226.51  E(vib)   ...       0.33 
freq.     235.09  E(vib)   ...       0.32 
freq.     253.54  E(vib)   ...       0.30 
freq.     259.42  E(vib)   ...       0.30 
freq.     310.14  E(vib)   ...       0.26 
freq.     317.18  E(vib)   ...       0.25 
freq.     325.50  E(vib)   ...       0.24 
freq.     336.96  E(vib)   ...       0.24 
freq.     345.12  E(vib)   ...       0.23 
freq.     363.08  E(vib)   ...       0.22 
freq.     366.96  E(vib)   ...       0.22 
freq.     387.20  E(vib)   ...       0.20 
freq.     393.23  E(vib)   ...       0.20 
freq.     418.97  E(vib)   ...       0.18 
freq.     437.22  E(vib)   ...       0.17 
freq.     468.53  E(vib)   ...       0.16 
freq.     481.09  E(vib)   ...       0.15 
freq.     515.32  E(vib)   ...       0.13 
freq.     530.76  E(vib)   ...       0.13 
freq.     557.40  E(vib)   ...       0.12 
freq.     565.95  E(vib)   ...       0.11 
freq.     592.91  E(vib)   ...       0.10 
freq.     620.31  E(vib)   ...       0.09 
freq.     632.56  E(vib)   ...       0.09 
freq.     638.03  E(vib)   ...       0.09 
freq.     663.09  E(vib)   ...       0.08 
freq.     675.53  E(vib)   ...       0.08 
freq.     715.60  E(vib)   ...       0.07 
freq.     718.49  E(vib)   ...       0.07 
freq.     773.82  E(vib)   ...       0.05 
freq.     790.12  E(vib)   ...       0.05 
freq.     795.17  E(vib)   ...       0.05 
freq.     803.41  E(vib)   ...       0.05 
freq.     809.04  E(vib)   ...       0.05 
freq.     827.25  E(vib)   ...       0.04 
freq.     862.78  E(vib)   ...       0.04 
freq.     899.46  E(vib)   ...       0.03 
freq.     906.55  E(vib)   ...       0.03 
freq.     998.31  E(vib)   ...       0.02 
freq.    1007.22  E(vib)   ...       0.02 
freq.    1052.37  E(vib)   ...       0.02 
freq.    1054.86  E(vib)   ...       0.02 
freq.    1065.79  E(vib)   ...       0.02 
freq.    1099.97  E(vib)   ...       0.02 
freq.    1122.91  E(vib)   ...       0.01 
freq.    1136.10  E(vib)   ...       0.01 
freq.    1187.11  E(vib)   ...       0.01 
freq.    1191.44  E(vib)   ...       0.01 
freq.    1198.60  E(vib)   ...       0.01 
freq.    1207.39  E(vib)   ...       0.01 
freq.    1208.88  E(vib)   ...       0.01 
freq.    1215.86  E(vib)   ...       0.01 
freq.    1219.64  E(vib)   ...       0.01 
freq.    1248.30  E(vib)   ...       0.01 
freq.    1257.13  E(vib)   ...       0.01 
freq.    1278.52  E(vib)   ...       0.01 
freq.    1297.77  E(vib)   ...       0.01 
freq.    1331.47  E(vib)   ...       0.01 
freq.    1334.55  E(vib)   ...       0.01 
freq.    1342.04  E(vib)   ...       0.01 
freq.    1359.26  E(vib)   ...       0.01 
freq.    1379.09  E(vib)   ...       0.01 
freq.    1389.55  E(vib)   ...       0.00 
freq.    1397.43  E(vib)   ...       0.00 
freq.    1412.25  E(vib)   ...       0.00 
freq.    1420.03  E(vib)   ...       0.00 
freq.    1449.93  E(vib)   ...       0.00 
freq.    1492.24  E(vib)   ...       0.00 
freq.    1511.54  E(vib)   ...       0.00 
freq.    1519.37  E(vib)   ...       0.00 
freq.    1562.75  E(vib)   ...       0.00 
freq.    1580.91  E(vib)   ...       0.00 
freq.    1660.96  E(vib)   ...       0.00 
freq.    1665.26  E(vib)   ...       0.00 
freq.    1679.41  E(vib)   ...       0.00 
freq.    1681.32  E(vib)   ...       0.00 
freq.    2995.60  E(vib)   ...       0.00 
freq.    3021.13  E(vib)   ...       0.00 
freq.    3029.12  E(vib)   ...       0.00 
freq.    3064.64  E(vib)   ...       0.00 
freq.    3164.71  E(vib)   ...       0.00 
freq.    3185.33  E(vib)   ...       0.00 
freq.    3196.42  E(vib)   ...       0.00 
freq.    3198.51  E(vib)   ...       0.00 
freq.    3208.94  E(vib)   ...       0.00 
freq.    3737.33  E(vib)   ...       0.00 
freq.    3745.05  E(vib)   ...       0.00 
freq.    3745.94  E(vib)   ...       0.00 
freq.    3746.27  E(vib)   ...       0.00 
freq.    3747.82  E(vib)   ...       0.00 

------------
INNER ENERGY
------------

The inner energy is: U= E(el) + E(ZPE) + E(vib) + E(rot) + E(trans)
    E(el)   - is the total energy from the electronic structure calculation
              = E(kin-el) + E(nuc-el) + E(el-el) + E(nuc-nuc)
    E(ZPE)  - the the zero temperature vibrational energy from the frequency calculation
    E(vib)  - the the finite temperature correction to E(ZPE) due to population
              of excited vibrational states
    E(rot)  - is the rotational thermal energy
    E(trans)- is the translational thermal energy

Summary of contributions to the inner energy U:
Electronic energy                ...  -1030.74171747 Eh
Zero point energy                ...      0.27086841 Eh     169.97 kcal/mol
Thermal vibrational correction   ...      0.01565837 Eh       9.83 kcal/mol
Thermal rotational correction    ...      0.00141627 Eh       0.89 kcal/mol
Thermal translational correction ...      0.00141627 Eh       0.89 kcal/mol
-----------------------------------------------------------------------
Total thermal energy                  -1030.45235815 Eh


Summary of corrections to the electronic energy:
(perhaps to be used in another calculation)
Total thermal correction                  0.01849091 Eh      11.60 kcal/mol
Non-thermal (ZPE) correction              0.27086841 Eh     169.97 kcal/mol
-----------------------------------------------------------------------
Total correction                          0.28935932 Eh     181.58 kcal/mol


--------
ENTHALPY
--------

The enthalpy is H = U + kB*T
                kB is Boltzmann's constant
Total thermal energy              ...  -1030.45235815 Eh 
Thermal Enthalpy correction       ...      0.00094421 Eh       0.59 kcal/mol
-----------------------------------------------------------------------
Total Enthalpy                    ...  -1030.45141394 Eh


Note: Only C1 symmetry has been detected, increase convergence thresholds 
      if your molecule has a higher symmetry. Symmetry factor of 1.0 is   
      used for the rotational entropy correction. 
 

Note: Rotational entropy computed according to Herzberg 
Infrared and Raman Spectra, Chapter V,1, Van Nostrand Reinhold, 1945 
Point Group:  C1, Symmetry Number:   1  
Rotational constants in cm-1:     0.021824     0.005000     0.004295 

Vibrational entropy computed according to the QRRHO of S. Grimme
Chem.Eur.J. 2012 18 9955 using a reference frequency of 100.0 cm-1


-------
ENTROPY
-------

The entropy contributions are T*S = T*(S(el)+S(vib)+S(rot)+S(trans))
     S(el)   - electronic entropy
     S(vib)  - vibrational entropy
     S(rot)  - rotational entropy
     S(trans)- translational entropy
The entropies will be listed as multiplied by the temperature to get
units of energy

Electronic entropy                ...      0.00000000 Eh      0.00 kcal/mol
Vibrational entropy               ...      0.02662936 Eh     16.71 kcal/mol
Rotational entropy                ...      0.01639072 Eh     10.29 kcal/mol
Translational entropy             ...      0.02038048 Eh     12.79 kcal/mol
-----------------------------------------------------------------------
Final entropy term                ...      0.06340056 Eh     39.78 kcal/mol

In case the symmetry of your molecule has not been determined correctly
or in case you have a reason to use a different symmetry number we print 
out the resulting rotational entropy values for sn=1,12:

 non-linear molecules -----------------------------------
|  sn= 1 | S(rot)=       0.01639072 Eh     10.29 kcal/mol|
|  sn= 2 | S(rot)=       0.01573626 Eh      9.87 kcal/mol|
|  sn= 3 | S(rot)=       0.01535343 Eh      9.63 kcal/mol|
|  sn= 4 | S(rot)=       0.01508180 Eh      9.46 kcal/mol|
|  sn= 5 | S(rot)=       0.01487111 Eh      9.33 kcal/mol|
|  sn= 6 | S(rot)=       0.01469897 Eh      9.22 kcal/mol|
|  sn= 7 | S(rot)=       0.01455342 Eh      9.13 kcal/mol|
|  sn= 8 | S(rot)=       0.01442735 Eh      9.05 kcal/mol|
|  sn= 9 | S(rot)=       0.01431614 Eh      8.98 kcal/mol|
|  sn=10 | S(rot)=       0.01421666 Eh      8.92 kcal/mol|
|  sn=11 | S(rot)=       0.01412667 Eh      8.86 kcal/mol|
|  sn=12 | S(rot)=       0.01404451 Eh      8.81 kcal/mol|
 linear molecules ---------------------------------------
|  Dinfh | S(rot)=       0.01047186 Eh      6.57 kcal/mol|
|  Cinfv | S(rot)=       0.01112632 Eh      6.98 kcal/mol|
 --------------------------------------------------------


-------------------
GIBBS FREE ENERGY
-------------------

The Gibbs free energy is G = H - T*S

Total enthalpy                    ...  -1030.45141394 Eh 
Total entropy correction          ...     -0.06340056 Eh    -39.78 kcal/mol
-----------------------------------------------------------------------
Final Gibbs free energy         ...  -1030.51481451 Eh

For completeness - the Gibbs free energy minus the electronic energy
G-E(el)                           ...      0.22690296 Eh    142.38 kcal/mol


Maximum memory used throughout the entire PROP-calculation: 186.6 MB

--------------------------------
SUGGESTED CITATIONS FOR THIS RUN
--------------------------------

Below you find a list of papers that are relevant to this ORCA run
We neither can nor want to force you to cite these papers, but we appreciate if you do
You receive ORCA, which is the product of decades of hard work by many enthusiastic individuals, for free
The only thing we kindly ask in return is that you cite our papers,
We deeply appreciate it, if you show your appreciation for ORCA by not just citing the generic ORCA reference.

Please note that relegating all ORCA citations to the supporting information does *not* help us.
SI sections are not indexed - citations you put there will not count into any citation statistics
But we need these citations in order to attract the funding resources that allow us to do what we are doing

Therefore, if you are a happy ORCA user, please consider citing a few of the papers listed below in the main body of your paper

In addition to the list printed below, the program has created the file Catechin.bibtex that contains the list in bibtex format
You can import this file easily into all common literature databanks and citation aid programs

It goes without saying that in many instances, there are alternative algorithms to achieve similar
results as the ones you have gotten from ORCA. It is, of course, also the case that in some instances
ORCA just re-implements algorithms worked out by others. We are fully aware of that and we are also
fully appreciative of our colleagues work. Hence this citation list should not be read as indicating
that the listed papers, which are focused on our own work, are the only ones worth citing. It simply
meant to make it easier for users to cite ORCA specific papers. It is not a substitute for doing your
own literature research and citing the relevant literature in a scientifically appropriate manner.

List of essential papers. We consider these as the minimum necessary citations

  1. Neese, F.
     Software update: the ORCA program system, version 6.0
     WIRES Comput. Molec. Sci. 2025 15(1), e70019
     doi.org/10.1002/wcms.70019

List of papers to cite with high priority. The work reported in these papers was absolutely
necessary for this run to complete.
Our perspective: the developers of density functionals and basis sets usually get cited in chemistry papers
Good! But without the algorithms to do something with them, the functionals or basis sets would not do anything.
Hence, in our opinion, the algorithm design and method developments papers are equally worthy of getting cited

  1. Neese, F.
     An improvement of the resolution of the identity approximation for the formation of the Coulomb matrix
     J. Comp. Chem. 2003 24(14), 1740-1747
     doi.org/10.1002/jcc.10318
  2. Neese, F.; Wennmohs, F.; Hansen, A.; Becker, U.
     Efficient, approximate and parallel Hartree-Fock and hybrid DFT calculations. A 'chain-of-spheres' algorithm for the Hartree-Fock exchange
     Chem. Phys. 2009 356(1-3), 98-109
     doi.org/10.1016/j.chemphys.2008.10.036
  3. Bykov, D.; Petrenko, T.; Izsak, R.; Kossmann, S.; Becker, U.; Valeev, E.; Neese, F.
     Efficient implementation of the analytic second derivatives of Hartree-Fock and hybrid DFT energies: a detailed analysis of different approximations
     Molec. Phys. 2015 113 , 1961-1977
     doi.org/10.1080/00268976.2015.1025114
  4. Helmich-Paris, B.; de Souza, B.; Neese, F.; Izsák, R.
     An improved chain of spheres for exchange algorithm
     J. Chem. Phys. 2021 155(10), 104109
     doi.org/10.1063/5.0058766
  5. Neese, F.
     The SHARK Integral Generation and Digestion System
     J. Comp. Chem. 2022 44(3), 381
     doi.org/10.1002/jcc.26942

List of suggested additional citations. These are papers that are important in the 'surrounding' of 
of this run, or papers that preceded the highly important papers. If you like your results we are grateful for a citation.

  1. Izsak, R.; Neese, F.
     An overlap fitted chain of spheres exchange method
     J. Chem. Phys. 2011 135 , 144105
     doi.org/10.1063/1.3646921
  2. Izsak, R.; Hansen, A.; Neese, F.
     The resolution of identity and chain of spheres approximations for the LPNO-CCSD singles Fock term
     Molec. Phys. 2012 110 , 2413-2417
     doi.org/10.1080/00268976.2012.687466
  3. Neese, F.
     The ORCA program system
     WIRES Comput. Molec. Sci. 2012 2(1), 73-78
     doi.org/10.1002/wcms.81
  4. Izsak, R.; Neese, F.; Klopper, W.
     Robust fitting techniques in the chain of spheres approximation to the Fock exchange: The role of the complementary space
     J. Chem. Phys. 2013 139 , 
     doi.org/10.1063/1.4819264
  5. Neese, F.
     Software update: the ORCA program system, version 4.0
     WIRES Comput. Molec. Sci. 2018 8(1), 1-6
     doi.org/10.1002/wcms.1327
  6. Neese, F.; Wennmohs, F.; Becker, U.; Riplinger, C.
     The ORCA quantum chemistry program package
     J. Chem. Phys. 2020 152(22), 224108
     doi.org/10.1063/5.0004608
  7. Neese, F.
     Software update: The ORCA program system—Version 5.0
     WIRES Comput. Molec. Sci. 2022 12(1), e1606
     doi.org/10.1002/wcms.1606

List of optional additional citations

  1. Neese, F.
     Approximate second-order SCF convergence for spin unrestricted wavefunctions
     Chem. Phys. Lett. 2000 325(1-3), 93-98
     doi.org/10.1016/s0009-2614(00)00662-x

Timings for individual modules:

Sum of individual times          ...     4909.734 sec (=  81.829 min)
Startup calculation              ...       70.756 sec (=   1.179 min)   1.4 %
SCF iterations                   ...     1518.668 sec (=  25.311 min)  30.9 %
Property integrals               ...      540.711 sec (=   9.012 min)  11.0 %
SCF Response                     ...      828.971 sec (=  13.816 min)  16.9 %
Property calculations            ...     1161.113 sec (=  19.352 min)  23.6 %
SCF Gradient evaluation          ...      788.029 sec (=  13.134 min)  16.1 %
Geometry relaxation              ...        1.487 sec (=   0.025 min)   0.0 %
                             ****ORCA TERMINATED NORMALLY****
TOTAL RUN TIME: 0 days 1 hours 21 minutes 55 seconds 94 msec
