73
Coordinates from ORCA-job Rutin E -2249.188653349721
  O           0.50076627728559      0.44197336714677      1.41779336545110
  O           1.45844856062020      2.95118559672405      0.38318212540579
  O           0.51486286701866      4.62590072443673     -0.98209894992172
  O           2.20581228987311      2.77511926272246      3.71511786944584
  O           3.49778071300571      0.27766035348658      4.25053334214039
  O           0.46828610972474     -1.82083573352827      1.24907145015145
  O           1.79458185055750     -2.00984864129076      3.84013466883731
  O           3.25126184013206      5.61652180910557     -1.29195196637699
  O           3.91842242699675      3.59526784140248     -3.08767290169123
  O           1.39532638606498      3.05313468423433     -4.18731603253201
  O          -2.66797789514745     -2.86691841834700     -0.24974668288455
  O          -0.49173206111300     -3.51882567640705      3.12723558028444
  O          -2.47403692277465     -5.16821991129556      3.95391134833592
  O          -6.19643326049465     -5.68620907365261      0.95417961590671
  O           1.76312064350641      0.09327687725535     -2.92839521380280
  O          -0.30446588976400      0.92001227647456     -4.64568756670194
  C           0.62497683443694      1.61559949488818      2.21331291790286
  C           1.99490944779739      1.61191251036595      2.90588983301497
  C           2.17740362631292      0.34542364218761      3.74721258590743
  C           1.87181924900734     -0.92530870763529      2.94855585464678
  C           2.91669864023487      4.26519182772605     -0.95695801698783
  C           1.60731228866449      4.23040645085051     -0.15545940968558
  C           2.78216156828671      3.43825438873198     -2.24160163620597
  C           1.52521017823899      3.85952018469940     -3.01054206861267
  C           0.55290210754064     -0.75536248040669      2.17698791888641
  C           0.39347319030651      2.82962756621809      1.32617766544543
  C           0.28319840921544      3.76219910429505     -2.12063728412686
  C          -0.99725344697333      4.23159122905113     -2.79278231200873
  C          -0.76216623627592     -2.40725099967512      1.06598788007276
  C          -1.47278622459123     -2.21821233449893     -0.08580529403261
  C          -1.19308265616015     -3.33199185462743      2.12442213981158
  C          -2.48958799908199     -3.97782149082830      1.88999289990710
  C          -1.14461510396472     -1.39109130553506     -1.25722736108943
  C          -3.18236329137566     -3.70507987167184      0.69347770802505
  C          -3.10988495529670     -4.88345866428597      2.79477976536835
  C          -4.41692470497200     -4.26613385763311      0.37193051907824
  C           0.17791595196185     -1.00259525991075     -1.53988798534078
  C          -2.17044786100160     -1.01056927802264     -2.14505718246097
  C          -4.34454201048652     -5.45432380260524      2.48951439194769
  C          -4.99263739908378     -5.14594618419325      1.28281404174779
  C           0.45844532635067     -0.24119665426217     -2.66723939957201
  C          -1.88516098317294     -0.22897489082355     -3.26005330361539
  C          -0.57706260721527      0.17848040342531     -3.52615063201954
  H          -0.17082681380342      1.62867837448254      2.98477343636366
  H           2.76964778396035      1.65304683359424      2.13651926798285
  H           1.44798842180232      0.38080426260460      4.58208071556056
  H           2.67073961108927     -1.06283295972513      2.20015168344027
  H           3.74105234601058      3.88888389503213     -0.34574325300869
  H           1.63209862269315      4.99227246237716      0.63643209569603
  H           2.70800854009179      2.37254395342679     -2.00239458326018
  H           1.63073798926572      4.90950741838902     -3.32765475461767
  H          -0.29782929229520     -0.79138329464575      2.87587719147091
  H          -0.56648341712741      2.72582987411854      0.80621928116222
  H           0.35682382186473      3.72486123433379      1.96164172689744
  H           0.17008971948159      2.72902569035619     -1.76798621298792
  H          -1.83014640765387      4.19075714523513     -2.08384475506113
  H          -1.23388997671663      3.58941821562402     -3.64682181066613
  H          -0.89423320663174      5.26355602636428     -3.14719621609232
  H           1.57366226596394      2.73663903834242      4.45396303627181
  H           3.71009377096002      1.17599926669847      4.55748562582991
  H           1.15301966311025     -2.66360682039199      3.48711367204498
  H           2.41769587198830      6.06697006918635     -1.51443409432085
  H           4.17015015938779      4.53469430886274     -3.00530523530434
  H           2.29763964576443      3.00970866397874     -4.55718081043340
  H          -4.90729274661815     -4.02919233271424     -0.56417704247221
  H           0.99602492408503     -1.29587075753592     -0.89763565374110
  H          -3.19205838299786     -1.31532198153648     -1.95253685334211
  H          -4.80762960985763     -6.14395610393174      3.19447188773503
  H          -2.67062780734636      0.08635571004563     -3.94019990186028
  H          -3.01361582498153     -5.79618680939757      4.46158388668067
  H          -6.48602677570485     -6.28666738170775      1.65911323822153
  H           1.81314031993752      0.37684475158238     -3.85679722388224
  H           0.28581150988293      1.68043674245976     -4.43186268715907
