73
Coordinates from ORCA-job Rutin E -2249.128477006057
  O       0.962876     -0.071301      1.744678
  O       0.762735      2.597461      0.982705
  O      -1.374728      3.587375      0.623577
  O       3.133371      2.172258      3.726002
  O       4.938539      0.136246      2.927967
  O       1.204203     -2.330370      1.057706
  O       3.705978     -2.471513      2.465416
  O      -0.128562      5.489883     -1.143615
  O       0.234088      3.753624     -3.185830
  O      -1.818303      1.725690     -2.534840
  O      -1.536104     -1.820176     -1.337863
  O      -1.106388     -2.373456      2.676970
  O      -3.723433     -1.767744      2.983826
  O      -6.133385     -0.898013     -1.050500
  O       3.295599      0.301836     -3.049051
  O       3.883653     -1.990564     -4.504616
  C       1.267010      0.944662      2.700108
  C       2.775967      1.204962      2.726683
  C       3.526681     -0.101962      3.016593
  C       3.098285     -1.229430      2.065429
  C       0.462534      4.209019     -0.821009
  C       0.048174      3.762023      0.591408
  C       0.002242      3.195646     -1.877143
  C      -1.490324      2.859189     -1.724363
  C       1.554660     -1.339854      2.040439
  C       0.467493      2.203684      2.328242
  C      -1.830550      2.552339     -0.258061
  C      -3.339318      2.435807     -0.057362
  C      -0.078524     -2.167082      0.557362
  C      -0.302256     -2.019431     -0.758455
  C      -1.249601     -2.139725      1.482346
  C      -2.562025     -1.815681      0.872636
  C       0.802742     -2.012981     -1.725752
  C      -2.622427     -1.673404     -0.515111
  C      -3.737473     -1.652532      1.622128
  C      -3.828719     -1.368264     -1.148779
  C       1.512032     -0.829511     -1.970845
  C       1.173102     -3.194575     -2.386829
  C      -4.950054     -1.350389      0.991802
  C      -4.981260     -1.207905     -0.391375
  C       2.568400     -0.839786     -2.870623
  C       2.228107     -3.190704     -3.303462
  C       2.904354     -2.005249     -3.553618
  H       0.924818      0.622450      3.692886
  H       3.118838      1.602201      1.763706
  H       3.352738     -0.410836      4.055077
  H       3.473560     -1.021088      1.056370
  H       1.548523      4.335468     -0.889640
  H       0.279000      4.574126      1.291298
  H       0.597564      2.279938     -1.814394
  H      -2.079429      3.710907     -2.088171
  H       1.205792     -1.696784      3.017014
  H      -0.600287      1.966698      2.399903
  H       0.694091      3.025319      3.017229
  H      -1.387263      1.592950      0.037423
  H      -3.565185      2.184977      0.984896
  H      -3.777748      1.669595     -0.701202
  H      -3.835052      3.390749     -0.264775
  H       2.902811      1.817384      4.603132
  H       5.096247      1.042306      3.255564
  H       3.413252     -2.691777      3.364431
  H      -0.983897      5.534180     -0.673560
  H       0.130071      4.720554     -3.085822
  H      -2.685132      1.891802     -2.942031
  H      -3.862855     -1.249025     -2.228743
  H       1.255256      0.086438     -1.448073
  H       0.640843     -4.122296     -2.190863
  H      -5.854307     -1.215418      1.575877
  H       2.506488     -4.100909     -3.825475
  H      -4.627247     -1.789444      3.335105
  H      -6.869873     -0.863688     -0.417887
  H       4.217778      0.015292     -3.179824
  H       3.786911     -1.138270     -4.968774
73
Coordinates from ORCA-job Rutin E -2249.142340792736
  O       0.958601     -0.041749      1.751746
  O       0.767017      2.624569      0.996587
  O      -1.358143      3.578919      0.619692
  O       3.177346      2.208288      3.659602
  O       4.937676      0.104314      2.868148
  O       1.149455     -2.259075      1.093586
  O       3.657209     -2.472562      2.427376
  O      -0.078180      5.507715     -1.073337
  O       0.339206      3.794290     -3.148127
  O      -1.677225      1.725437     -2.557953
  O      -1.567477     -1.830571     -1.293342
  O      -1.118123     -2.292112      2.745985
  O      -3.765029     -1.765141      3.001661
  O      -6.180668     -1.051596     -1.085203
  O       3.265245      0.330466     -3.091998
  O       3.852430     -1.974937     -4.527780
  C       1.272939      0.976525      2.694640
  C       2.787629      1.215658      2.703408
  C       3.532072     -0.095908      2.989798
  C       3.077006     -1.224330      2.059347
  C       0.499750      4.226460     -0.775640
  C       0.051700      3.776802      0.617806
  C       0.077533      3.226420     -1.863600
  C      -1.408243      2.861202     -1.732840
  C       1.538098     -1.297621      2.067709
  C       0.463053      2.218493      2.332491
  C      -1.783655      2.533654     -0.275444
  C      -3.290289      2.379529     -0.083879
  C      -0.128290     -2.103071      0.605445
  C      -0.329409     -1.982803     -0.723359
  C      -1.278148     -2.093941      1.542512
  C      -2.591706     -1.818271      0.912939
  C       0.774604     -1.988444     -1.711971
  C      -2.662264     -1.700077     -0.487951
  C      -3.789240     -1.675039      1.645892
  C      -3.863854     -1.448942     -1.151064
  C       1.489574     -0.809789     -1.963829
  C       1.131170     -3.170826     -2.376391
  C      -5.000088     -1.422724      0.990689
  C      -5.027663     -1.310861     -0.404735
  C       2.537719     -0.818754     -2.878964
  C       2.166709     -3.171067     -3.313849
  C       2.853981     -1.989346     -3.578135
  H       0.942028      0.661370      3.699681
  H       3.108735      1.596690      1.731001
  H       3.331537     -0.402104      4.034243
  H       3.427274     -1.025380      1.043102
  H       1.584140      4.364245     -0.806124
  H       0.237756      4.585899      1.338015
  H       0.680890      2.317080     -1.793846
  H      -2.001499      3.715505     -2.087534
  H       1.179484     -1.635620      3.050584
  H      -0.603808      1.978922      2.411408
  H       0.695290      3.030499      3.034097
  H      -1.302088      1.590962      0.013463
  H      -3.520682      2.117850      0.954853
  H      -3.689157      1.595876     -0.733566
  H      -3.809636      3.321156     -0.306502
  H       2.961024      1.875220      4.546899
  H       5.105294      1.004781      3.195327
  H       3.375091     -2.685376      3.331776
  H      -0.950553      5.529901     -0.642645
  H       0.197301      4.750936     -3.030710
  H      -2.530551      1.865502     -2.990360
  H      -3.886774     -1.356895     -2.231255
  H       1.251556      0.103464     -1.429885
  H       0.595840     -4.093109     -2.170656
  H      -5.915598     -1.302542      1.566942
  H       2.434217     -4.079909     -3.843064
  H      -4.673842     -1.786119      3.338235
  H      -6.922953     -1.022247     -0.461651
  H       4.187432      0.060649     -3.249486
  H       3.787923     -1.122491     -4.994406
73
Coordinates from ORCA-job Rutin E -2249.147201193939
  O       0.949509      0.012600      1.768519
  O       0.801324      2.698668      1.044871
  O      -1.321582      3.557912      0.524681
  O       3.211747      2.233997      3.651923
  O       4.921158      0.079644      2.862796
  O       1.074928     -2.180379      1.118805
  O       3.594786     -2.466820      2.402014
  O       0.001596      5.565842     -1.022492
  O       0.661463      3.908842     -3.086220
  O      -1.268451      1.720638     -2.676537
  O      -1.669748     -1.862569     -1.210353
  O      -1.132498     -2.245689      2.829779
  O      -3.807740     -1.859840      3.094336
  O      -6.309278     -1.335972     -0.981175
  O       3.093914      0.436300     -3.109327
  O       3.660412     -1.834007     -4.600444
  C       1.272702      1.025649      2.711080
  C       2.792854      1.236947      2.716249
  C       3.520384     -0.085722      2.993308
  C       3.040538     -1.209218      2.065545
  C       0.607332      4.306923     -0.706371
  C       0.067244      3.821598      0.638013
  C       0.324558      3.310975     -1.844269
  C      -1.144512      2.860249     -1.826601
  C       1.503216     -1.246661      2.090214
  C       0.463017      2.261780      2.360192
  C      -1.622789      2.492578     -0.408088
  C      -3.123728      2.246264     -0.326108
  C      -0.212020     -2.048951      0.662622
  C      -0.416504     -1.950024     -0.672014
  C      -1.328715     -2.075535      1.625537
  C      -2.656261     -1.875581      1.004450
  C       0.662635     -1.933884     -1.694720
  C      -2.761913     -1.778440     -0.401601
  C      -3.864572     -1.785978      1.743329
  C      -3.975229     -1.602058     -1.066886
  C       1.363787     -0.746100     -1.939103
  C       1.001594     -3.097703     -2.396971
  C      -5.087453     -1.607890      1.091544
  C      -5.137784     -1.518094     -0.308930
  C       2.381984     -0.725036     -2.887097
  C       2.002347     -3.069353     -3.369052
  C       2.678798     -1.879547     -3.628948
  H       0.944758      0.709759      3.720570
  H       3.103582      1.614293      1.738837
  H       3.282400     -0.393248      4.035731
  H       3.372575     -1.005810      1.043950
  H       1.682568      4.495232     -0.637750
  H       0.141805      4.627306      1.383676
  H       0.963441      2.429372     -1.731276
  H      -1.755396      3.693513     -2.206506
  H       1.135849     -1.566238      3.078486
  H      -0.603046      2.015574      2.419925
  H       0.679531      3.056125      3.089409
  H      -1.090517      1.585854     -0.095095
  H      -3.412492      1.961511      0.690792
  H      -3.409844      1.435668     -1.004130
  H      -3.682034      3.152282     -0.596376
  H       2.998209      1.911328      4.544442
  H       5.106908      0.970489      3.207676
  H       3.320820     -2.684187      3.308594
  H      -0.913898      5.526223     -0.695456
  H       0.434309      4.850091     -2.972722
  H      -2.088059      1.803997     -3.182099
  H      -4.007827     -1.532061     -2.147226
  H       1.145286      0.151523     -1.370719
  H       0.475007     -4.025377     -2.194563
  H      -6.003592     -1.529500      1.676546
  H       2.258910     -3.959814     -3.934155
  H      -4.714813     -1.894250      3.438244
  H      -7.045320     -1.333501     -0.349344
  H       4.014794      0.186681     -3.298527
  H       3.588737     -0.975293     -5.051836
73
Coordinates from ORCA-job Rutin E -2249.148806738133
  O       0.940395      0.084834      1.776554
  O       0.850909      2.786591      1.098073
  O      -1.275488      3.527117      0.431214
  O       3.224578      2.251782      3.692813
  O       4.890898      0.063133      2.924810
  O       1.025361     -2.095287      1.104532
  O       3.537925     -2.448835      2.391004
  O       0.035508      5.585659     -1.043764
  O       0.929524      3.946394     -3.032851
  O      -0.874678      1.633721     -2.709317
  O      -1.764392     -1.873837     -1.165340
  O      -1.138306     -2.149464      2.870558
  O      -3.827676     -1.915302      3.167986
  O      -6.420015     -1.589640     -0.872555
  O       2.995960      0.519671     -3.078684
  O       3.457514     -1.682162     -4.697496
  C       1.265883      1.082542      2.734580
  C       2.789642      1.264850      2.754123
  C       3.489088     -0.073415      3.028360
  C       3.001138     -1.179926      2.079931
  C       0.690657      4.367966     -0.670022
  C       0.086021      3.866193      0.639382
  C       0.546423      3.343655     -1.810743
  C      -0.890649      2.794906     -1.882350
  C       1.463350     -1.189836      2.092670
  C       0.470738      2.327881      2.391591
  C      -1.449787      2.423277     -0.493817
  C      -2.933514      2.086887     -0.506804
  C      -0.274056     -1.981856      0.679580
  C      -0.497004     -1.899687     -0.655142
  C      -1.366650     -2.034243      1.665105
  C      -2.709319     -1.906326      1.062923
  C       0.553121     -1.861012     -1.705520
  C      -2.847790     -1.837907     -0.342395
  C      -3.914654     -1.863795      1.817901
  C      -4.076589     -1.733590     -0.995141
  C       1.283108     -0.681760     -1.904541
  C       0.826112     -2.990116     -2.487805
  C      -5.151601     -1.756828      1.181947
  C      -5.229840     -1.695768     -0.219212
  C       2.266716     -0.635332     -2.886080
  C       1.791036     -2.933093     -3.493769
  C       2.498304     -1.752385     -3.706535
  H       0.929301      0.758668      3.739589
  H       3.109469      1.642666      1.779402
  H       3.208696     -0.385926      4.060765
  H       3.336223     -0.957655      1.062541
  H       1.745320      4.620010     -0.526771
  H       0.058652      4.678211      1.381343
  H       1.227600      2.502969     -1.637041
  H      -1.526751      3.581361     -2.319277
  H       1.077773     -1.506965      3.075068
  H      -0.597332      2.082901      2.415487
  H       0.668310      3.106290      3.143992
  H      -0.879530      1.562763     -0.123815
  H      -3.276026      1.819002      0.497544
  H      -3.115043      1.232169     -1.167348
  H      -3.523999      2.943215     -0.856857
  H       2.993368      1.934918      4.583432
  H       5.093163      0.935194      3.307474
  H       3.259613     -2.683323      3.292126
  H      -0.906084      5.470485     -0.824661
  H       0.603889      4.863251     -2.965184
  H      -1.657752      1.643884     -3.276185
  H      -4.126697     -1.691117     -2.076074
  H       1.114995      0.188053     -1.278814
  H       0.274411     -3.910349     -2.321120
  H      -6.061563     -1.714726      1.780632
  H       1.999709     -3.791944     -4.124070
  H      -4.728238     -1.945379      3.530622
  H      -7.144019     -1.604949     -0.226995
  H       3.906386      0.263182     -3.305078
  H       3.403955     -0.798616     -5.100882
73
Coordinates from ORCA-job Rutin E -2249.150060030083
  O       0.998758      0.187109      1.776222
  O       0.896243      2.875246      1.123047
  O      -1.279981      3.635184      0.617079
  O       3.371337      2.273289      3.673357
  O       4.941399      0.029179      2.911085
  O       1.027761     -1.987107      1.071018
  O       3.533126     -2.429307      2.347955
  O      -0.072523      5.553176     -1.100450
  O       0.574428      3.762899     -3.058271
  O      -1.252455      1.537196     -2.410562
  O      -1.678927     -1.878439     -1.282149
  O      -1.195108     -1.887089      2.780380
  O      -3.898283     -1.713343      2.961720
  O      -6.347398     -1.696943     -1.179499
  O       3.373305      0.228878     -2.986443
  O       3.599715     -1.930973     -4.699539
  C       1.355723      1.166447      2.747842
  C       2.884038      1.301265      2.744636
  C       3.540854     -0.058496      3.010729
  C       3.017356     -1.149401      2.059570
  C       0.588545      4.340227     -0.718283
  C       0.105892      3.942179      0.675243
  C       0.300016      3.251149     -1.771706
  C      -1.154243      2.743051     -1.660530
  C       1.478945     -1.115516      2.079070
  C       0.591874      2.441638      2.442647
  C      -1.577710      2.472344     -0.202252
  C      -3.058476      2.178984     -0.037577
  C      -0.261151     -1.871405      0.612133
  C      -0.425929     -1.860090     -0.735154
  C      -1.382821     -1.858998      1.562421
  C      -2.700778     -1.799300      0.905223
  C       0.648238     -1.904111     -1.756376
  C      -2.794828     -1.822909     -0.504783
  C      -3.941675     -1.740432      1.608744
  C      -3.997623     -1.785470     -1.212609
  C       1.526231     -0.819277     -1.877369
  C       0.779901     -3.009448     -2.605986
  C      -5.151235     -1.700646      0.921494
  C      -5.179628     -1.728149     -0.482611
  C       2.517852     -0.841949     -2.848883
  C       1.758176     -3.017862     -3.600055
  C       2.615378     -1.929611     -3.734397
  H       1.031325      0.834841      3.755089
  H       3.193750      1.670970      1.762969
  H       3.225782     -0.360901      4.038419
  H       3.342326     -0.919321      1.039358
  H       1.658206      4.567286     -0.694995
  H       0.158493      4.797881      1.364294
  H       0.966634      2.395242     -1.607486
  H      -1.813262      3.527151     -2.070346
  H       1.076120     -1.426337      3.055650
  H      -0.482044      2.241746      2.536914
  H       0.875813      3.216296      3.171915
  H      -0.980031      1.629739      0.163081
  H      -3.301062      2.011020      1.015845
  H      -3.314625      1.268494     -0.589874
  H      -3.665707      3.011691     -0.412433
  H       3.132162      1.972934      4.568289
  H       5.181543      0.874814      3.330610
  H       3.264305     -2.672639      3.249753
  H      -1.004976      5.443820     -0.838415
  H       0.240207      4.679562     -3.034636
  H      -2.090580      1.526579     -2.893608
  H      -4.003858     -1.821089     -2.294846
  H       1.460438      0.031681     -1.209609
  H       0.107191     -3.855450     -2.500523
  H      -6.084153     -1.645349      1.482781
  H       1.866089     -3.852260     -4.286460
  H      -4.810806     -1.675118      3.294690
  H      -7.093260     -1.676169     -0.559144
  H       4.256692     -0.117342     -3.200122
  H       3.668672     -1.029039     -5.057691
73
Coordinates from ORCA-job Rutin E -2249.152030060338
  O       0.992821      0.239405      1.775291
  O       0.927737      2.910899      1.140039
  O      -1.241589      3.626422      0.526089
  O       3.322498      2.280799      3.772694
  O       4.908394      0.053018      2.989992
  O       1.021363     -1.927437      1.047394
  O       3.510734     -2.390409      2.358403
  O       0.012724      5.529602     -1.177033
  O       0.779624      3.696382     -3.065857
  O      -1.061840      1.474034     -2.459395
  O      -1.740696     -1.864869     -1.253059
  O      -1.179981     -1.918727      2.797763
  O      -3.878870     -1.832404      3.039473
  O      -6.410998     -1.866598     -1.048280
  O       3.440170      0.193072     -2.846181
  O       3.440566     -1.770664     -4.793080
  C       1.329318      1.202491      2.768542
  C       2.858266      1.333405      2.806114
  C       3.505671     -0.034081      3.061824
  C       2.997942     -1.105543      2.080501
  C       0.674488      4.332915     -0.741313
  C       0.138442      3.955404      0.639861
  C       0.445410      3.214061     -1.779691
  C      -1.007729      2.694154     -1.728344
  C       1.458799     -1.070617      2.073356
  C       0.581666      2.485467      2.452610
  C      -1.489871      2.447154     -0.285079
  C      -2.975532      2.147001     -0.186029
  C      -0.281138     -1.837007      0.614670
  C      -0.477083     -1.816498     -0.728762
  C      -1.388223     -1.856363      1.584474
  C      -2.721201     -1.841609      0.955536
  C       0.571567     -1.833722     -1.771614
  C      -2.840606     -1.856271     -0.450616
  C      -3.946442     -1.842431      1.686134
  C      -4.060074     -1.859351     -1.131119
  C       1.537054     -0.817185     -1.799360
  C       0.587590     -2.841378     -2.744729
  C      -5.171568     -1.846264      1.025920
  C      -5.227779     -1.858010     -0.377078
  C       2.500346     -0.812126     -2.799449
  C       1.543856     -2.821683     -3.760275
  C       2.487782     -1.799621     -3.799223
  H       0.976985      0.860190      3.761473
  H       3.195318      1.725223      1.842439
  H       3.177596     -0.350755      4.080251
  H       3.341986     -0.857704      1.070931
  H       1.738776      4.575944     -0.682504
  H       0.151419      4.823910      1.313886
  H       1.107292      2.366358     -1.564601
  H      -1.655653      3.461275     -2.185097
  H       1.038034     -1.388096      3.037948
  H      -0.495952      2.295272      2.516996
  H       0.854214      3.256686      3.188820
  H      -0.906429      1.613439      0.121440
  H      -3.265952      1.997285      0.858386
  H      -3.204246      1.226555     -0.733716
  H      -3.569769      2.970170     -0.600985
  H       3.045787      1.968023      4.652197
  H       5.144735      0.888531      3.430374
  H       3.230448     -2.648125      3.252389
  H      -0.927286      5.411797     -0.949158
  H       0.448021      4.613261     -3.081865
  H      -1.880397      1.442616     -2.973659
  H      -4.087493     -1.884585     -2.213463
  H       1.556809     -0.040642     -1.042204
  H      -0.156346     -3.631825     -2.716220
  H      -6.093930     -1.838584      1.606525
  H       1.564912     -3.578560     -4.538454
  H      -4.783721     -1.816914      3.393307
  H      -7.143757     -1.876751     -0.412457
  H       4.289789     -0.203240     -3.106239
  H       3.570905     -0.841671     -5.052252
73
Coordinates from ORCA-job Rutin E -2249.153090952667
  O       0.961724      0.290438      1.763264
  O       0.972116      2.920859      1.123572
  O      -1.146327      3.540625      0.271673
  O       3.147243      2.281042      3.963858
  O       4.807651      0.095580      3.187971
  O       1.020323     -1.858036      1.006221
  O       3.459456     -2.337450      2.425627
  O       0.221306      5.428152     -1.375881
  O       1.239019      3.541316     -3.101033
  O      -0.620353      1.312333     -2.621522
  O      -1.873474     -1.852434     -1.156202
  O      -1.107063     -2.062817      2.856402
  O      -3.779734     -2.106064      3.247697
  O      -6.523997     -2.047723     -0.695092
  O       3.456457      0.205427     -2.593748
  O       3.082594     -1.223003     -4.930977
  C       1.237534      1.235924      2.785272
  C       2.761489      1.370613      2.927767
  C       3.400459     -0.004193      3.184504
  C       2.952537     -1.046653      2.146884
  C       0.867258      4.267283     -0.828348
  C       0.207366      3.920612      0.508919
  C       0.772634      3.101805     -1.834585
  C      -0.664299      2.553188     -1.924340
  C       1.415023     -1.022542      2.064908
  C       0.518766      2.524008      2.414797
  C      -1.277584      2.338481     -0.527779
  C      -2.762788      2.009749     -0.580171
  C      -0.309035     -1.835472      0.640732
  C      -0.588505     -1.760008     -0.686875
  C      -1.369723     -1.985978      1.654173
  C      -2.737992     -1.980840      1.101225
  C       0.396757     -1.659394     -1.774589
  C      -2.924539     -1.937010     -0.293377
  C      -3.912458     -2.057570      1.898703
  C      -4.181945     -1.954221     -0.900562
  C       1.489927     -0.785328     -1.651924
  C       0.223068     -2.398385     -2.954273
  C      -5.174755     -2.081484      1.308599
  C      -5.305840     -2.029733     -0.087784
  C       2.390870     -0.661288     -2.700162
  C       1.126907     -2.263473     -4.009068
  C       2.199212     -1.382623     -3.888931
  H       0.816705      0.885661      3.745917
  H       3.167419      1.797540      2.006874
  H       3.045736     -0.346773      4.182149
  H       3.353428     -0.773774      1.166036
  H       1.914716      4.543884     -0.685922
  H       0.135700      4.811127      1.148533
  H       1.421076      2.276129     -1.521941
  H      -1.277408      3.283427     -2.477226
  H       0.953703     -1.355497      3.001739
  H      -0.561628      2.343467      2.399169
  H       0.741330      3.301793      3.158853
  H      -0.732766      1.521752     -0.040732
  H      -3.159723      1.879676      0.432273
  H      -2.929153      1.078268     -1.132710
  H      -3.326214      2.817208     -1.064485
  H       2.791307      1.946251      4.805139
  H       5.014580      0.923266      3.655655
  H       3.140768     -2.613325      3.300575
  H      -0.730524      5.304114     -1.212769
  H       0.920685      4.458020     -3.184502
  H      -1.391169      1.244846     -3.201216
  H      -4.270215     -1.922711     -1.979876
  H       1.642959     -0.201611     -0.749290
  H      -0.625172     -3.068476     -3.051130
  H      -6.063191     -2.139200      1.936292
  H       1.003772     -2.814052     -4.936499
  H      -4.662363     -2.131672      3.650645
  H      -7.220760     -2.105764     -0.022833
  H       4.233929     -0.233855     -2.980765
  H       3.320889     -0.279534     -4.967895
73
Coordinates from ORCA-job Rutin E -2249.154274125032
  O       0.981689      0.278250      1.773545
  O       0.984572      2.928618      1.109095
  O      -1.159787      3.591389      0.364816
  O       3.226076      2.290333      3.894800
  O       4.845594      0.065403      3.148088
  O       1.021455     -1.885006      1.047954
  O       3.456349     -2.367576      2.464373
  O       0.163564      5.480349     -1.321789
  O       1.057090      3.605898     -3.123403
  O      -0.838024      1.425879     -2.603500
  O      -1.814335     -1.909182     -1.183069
  O      -1.145057     -2.053251      2.847621
  O      -3.828833     -2.028771      3.173899
  O      -6.475460     -2.040874     -0.837867
  O       3.497445      0.147907     -2.639267
  O       3.185742     -1.401125     -4.908856
  C       1.283488      1.238499      2.777133
  C       2.810387      1.359721      2.889311
  C       3.437449     -0.015592      3.165953
  C       2.964725     -1.077634      2.160798
  C       0.809918      4.298934     -0.824210
  C       0.208700      3.946031      0.538168
  C       0.641366      3.155689     -1.844438
  C      -0.811875      2.645713     -1.870725
  C       1.427112     -1.035466      2.091995
  C       0.571396      2.533306      2.413890
  C      -1.353532      2.406803     -0.448282
  C      -2.842962      2.095192     -0.420597
  C      -0.296312     -1.849127      0.648529
  C      -0.539680     -1.810270     -0.690633
  C      -1.379919     -1.960785      1.640218
  C      -2.733846     -1.964466      1.053394
  C       0.463933     -1.738581     -1.766919
  C      -2.887818     -1.955524     -0.346603
  C      -3.929628     -2.013673      1.822346
  C      -4.128635     -1.973967     -0.986394
  C       1.539379     -0.839300     -1.674752
  C       0.317905     -2.530545     -2.915971
  C      -5.176626     -2.039837      1.200434
  C      -5.273155     -2.019353     -0.200091
  C       2.452749     -0.748874     -2.715053
  C       1.232494     -2.429095     -3.964391
  C       2.289753     -1.527610     -3.872147
  H       0.878179      0.903270      3.750711
  H       3.202959      1.759219      1.950427
  H       3.087148     -0.332763      4.174132
  H       3.359807     -0.835110      1.169439
  H       1.868819      4.551998     -0.727122
  H       0.179190      4.831356      1.188915
  H       1.284278      2.310494     -1.574506
  H      -1.434647      3.408545     -2.366148
  H       0.967050     -1.349997      3.036925
  H      -0.511503      2.368516      2.433730
  H       0.827522      3.310029      3.148968
  H      -0.790434      1.575598     -0.008773
  H      -3.183253      1.951399      0.610198
  H      -3.049244      1.174399     -0.977365
  H      -3.423226      2.916251     -0.860037
  H       2.882881      1.978699      4.750286
  H       5.068668      0.900158      3.595721
  H       3.143682     -2.616667      3.349683
  H      -0.782139      5.373800     -1.115360
  H       0.753217      4.530167     -3.177063
  H      -1.643327      1.392658     -3.137775
  H      -4.189328     -1.967704     -2.067953
  H       1.658178     -0.195896     -0.811208
  H      -0.517391     -3.219002     -2.992702
  H      -6.080954     -2.074582      1.807098
  H       1.130250     -3.023679     -4.866905
  H      -4.722403     -2.041877      3.553438
  H      -7.189335     -2.076750     -0.182082
  H       4.290579     -0.289248     -2.994715
  H       3.415630     -0.457811     -4.981761
73
Coordinates from ORCA-job Rutin E -2249.154704911268
  O       0.975961      0.302816      1.777638
  O       1.019287      2.953599      1.093580
  O      -1.120778      3.599442      0.330507
  O       3.238568      2.301593      3.892732
  O       4.827267      0.043654      3.182596
  O       0.998283     -1.860914      1.061050
  O       3.408113     -2.373911      2.504142
  O       0.208628      5.480042     -1.364649
  O       1.116355      3.594211     -3.144498
  O      -0.779102      1.417602     -2.623452
  O      -1.836689     -1.926170     -1.162858
  O      -1.155801     -2.084872      2.862168
  O      -3.841487     -2.085800      3.194338
  O      -6.493020     -2.154392     -0.815258
  O       3.515973      0.116413     -2.590607
  O       3.111964     -1.297674     -4.932662
  C       1.286314      1.268076      2.774361
  C       2.813930      1.366542      2.895730
  C       3.418242     -0.015122      3.188722
  C       2.939193     -1.079060      2.188853
  C       0.852441      4.303986     -0.853401
  C       0.243744      3.962296      0.507500
  C       0.693674      3.153051     -1.865945
  C      -0.758403      2.639705     -1.894966
  C       1.403728     -1.015265      2.106905
  C       0.596152      2.570528      2.398215
  C      -1.303323      2.405974     -0.472416
  C      -2.789354      2.080054     -0.442452
  C      -0.319127     -1.836799      0.664047
  C      -0.562270     -1.799561     -0.677243
  C      -1.396342     -1.968323      1.657403
  C      -2.751086     -1.999303      1.073435
  C       0.430452     -1.706721     -1.761674
  C      -2.908839     -1.992697     -0.326557
  C      -3.945390     -2.073644      1.843670
  C      -4.148695     -2.037880     -0.966356
  C       1.542571     -0.855861     -1.642562
  C       0.239474     -2.431746     -2.948817
  C      -5.192013     -2.125046      1.222257
  C      -5.291081     -2.107476     -0.178419
  C       2.440050     -0.741889     -2.693057
  C       1.137957     -2.305752     -4.007509
  C       2.229025     -1.448730     -3.888352
  H       0.870776      0.947603      3.749329
  H       3.218011      1.750163      1.955036
  H       3.050576     -0.319399      4.195178
  H       3.346208     -0.849073      1.199180
  H       1.910345      4.559755     -0.750312
  H       0.204074      4.854919      1.148178
  H       1.338069      2.312631     -1.584182
  H      -1.382021      3.400203     -2.393325
  H       0.929578     -1.319679      3.048799
  H      -0.489339      2.423657      2.415482
  H       0.861945      3.347500      3.130217
  H      -0.731949      1.584849     -0.024530
  H      -3.129850      1.945541      0.589337
  H      -2.984765      1.150244     -0.987615
  H      -3.376937      2.889479     -0.893596
  H       2.882887      2.005867      4.748882
  H       5.058173      0.876268      3.630726
  H       3.087425     -2.610247      3.390224
  H      -0.739261      5.372612     -1.168062
  H       0.801263      4.514319     -3.209791
  H      -1.590288      1.374331     -3.148236
  H      -4.210582     -2.032166     -2.047785
  H       1.698078     -0.259598     -0.752291
  H      -0.621153     -3.085111     -3.046794
  H      -6.094817     -2.179020      1.830020
  H       0.998107     -2.846263     -4.938552
  H      -4.735015     -2.115133      3.573692
  H      -7.205491     -2.201677     -0.158574
  H       4.291531     -0.330222     -2.971532
  H       3.385575     -0.363425     -4.949645
73
Coordinates from ORCA-job Rutin E -2249.155531378511
  O       0.948205      0.278127      1.786165
  O       1.055190      2.944593      1.043518
  O      -1.060443      3.567232      0.211582
  O       3.194857      2.314069      3.885984
  O       4.773661      0.017324      3.285136
  O       0.983460     -1.895410      1.109136
  O       3.334427     -2.405051      2.641583
  O       0.306291      5.520867     -1.386714
  O       1.297896      3.702505     -3.184636
  O      -0.599212      1.505038     -2.814483
  O      -1.875771     -1.979659     -1.084375
  O      -1.128250     -2.236072      2.917995
  O      -3.811989     -2.241199      3.297388
  O      -6.524176     -2.252663     -0.674608
  O       3.447857      0.166908     -2.553750
  O       2.915079     -1.053925     -4.980860
  C       1.255978      1.268279      2.758932
  C       2.781294      1.352189      2.911157
  C       3.362049     -0.026245      3.258305
  C       2.897396     -1.111397      2.277040
  C       0.940038      4.336603     -0.885109
  C       0.287525      3.952064      0.442231
  C       0.833570      3.217227     -1.936741
  C      -0.610250      2.693815     -2.032061
  C       1.366835     -1.034500      2.151389
  C       0.591370      2.570029      2.337287
  C      -1.189515      2.397601     -0.634268
  C      -2.666493      2.029503     -0.653939
  C      -0.333211     -1.896017      0.718636
  C      -0.595326     -1.831771     -0.621360
  C      -1.389898     -2.091396      1.719888
  C      -2.756438     -2.113019      1.161145
  C       0.363222     -1.667047     -1.727630
  C      -2.935882     -2.073612     -0.235830
  C      -3.935550     -2.207943      1.949474
  C      -4.183965     -2.117730     -0.857277
  C       1.499355     -0.848414     -1.598307
  C       0.120843     -2.305572     -2.957291
  C      -5.192769     -2.254895      1.345537
  C      -5.313568     -2.212280     -0.052920
  C       2.352070     -0.668527     -2.675204
  C       0.973277     -2.112833     -4.041772
  C       2.080335     -1.278042     -3.911119
  H       0.815756      0.982732      3.734703
  H       3.212837      1.698245      1.968133
  H       2.969979     -0.301692      4.263448
  H       3.339320     -0.916713      1.294958
  H       1.990999      4.598885     -0.734155
  H       0.209630      4.834001      1.095155
  H       1.481573      2.380219     -1.656696
  H      -1.227459      3.469189     -2.514907
  H       0.865077     -1.322910      3.085178
  H      -0.495445      2.434452      2.324400
  H       0.839952      3.352341      3.070142
  H      -0.611364      1.575887     -0.195481
  H      -3.030311      1.853209      0.363356
  H      -2.822772      1.114058     -1.234414
  H      -3.265422      2.837657     -1.093184
  H       2.817451      2.048937      4.742861
  H       4.999296      0.862144      3.713083
  H       2.988193     -2.605846      3.526991
  H      -0.646557      5.412624     -1.217156
  H       0.970395      4.619722     -3.231778
  H      -1.414537      1.466045     -3.333426
  H      -4.265163     -2.082901     -1.936846
  H       1.701729     -0.315651     -0.679353
  H      -0.749586     -2.942910     -3.067038
  H      -6.085792     -2.326084      1.966019
  H       0.782355     -2.584360     -5.000742
  H      -4.699801     -2.306771      3.685679
  H      -7.226800     -2.316726     -0.008708
  H       4.206406     -0.269018     -2.978088
  H       3.226388     -0.133617     -4.915789
73
Coordinates from ORCA-job Rutin E -2249.156231182440
  O       0.913554      0.244273      1.791877
  O       1.082954      2.909209      0.985435
  O      -0.982925      3.449935     -0.004397
  O       3.114920      2.328919      3.892926
  O       4.697816      0.005873      3.414426
  O       0.959947     -1.935282      1.161738
  O       3.258068     -2.428749      2.781188
  O       0.424427      5.525104     -1.428663
  O       1.612915      3.819495     -3.209070
  O      -0.227679      1.559386     -3.087146
  O      -1.954919     -1.982214     -0.961000
  O      -1.088923     -2.447400      2.991943
  O      -3.761829     -2.488607      3.451675
  O      -6.586069     -2.322165     -0.440019
  O       3.310007      0.301893     -2.490406
  O       2.588029     -0.623616     -4.997327
  C       1.205567      1.261122      2.739272
  C       2.725980      1.339042      2.937302
  C       3.286709     -0.032186      3.342255
  C       2.847908     -1.139137      2.373180
  C       1.059381      4.344919     -0.921298
  C       0.321657      3.893622      0.337817
  C       1.076741      3.265752     -2.019744
  C      -0.335278      2.697222     -2.239424
  C       1.323937     -1.057732      2.198021
  C       0.555114      2.546573      2.257458
  C      -0.985413      2.306664     -0.895971
  C      -2.431436      1.844799     -1.021858
  C      -0.363135     -1.960002      0.796016
  C      -0.662276     -1.830059     -0.533005
  C      -1.386874     -2.242389      1.810670
  C      -2.770361     -2.246039      1.295083
  C       0.241714     -1.562764     -1.662932
  C      -2.990674     -2.133813     -0.092094
  C      -3.924041     -2.391204      2.111136
  C      -4.253579     -2.157328     -0.680638
  C       1.408515     -0.788897     -1.523531
  C      -0.087260     -2.059359     -2.939725
  C      -5.198085     -2.417331      1.540229
  C      -5.359036     -2.303543      0.150130
  C       2.191434     -0.503800     -2.629371
  C       0.696184     -1.762076     -4.050445
  C       1.826530     -0.961016     -3.905757
  H       0.736089      1.012787      3.712129
  H       3.191228      1.652325      1.999185
  H       2.860714     -0.281110      4.340339
  H       3.326201     -0.970486      1.403234
  H       2.084858      4.636489     -0.676766
  H       0.151503      4.758284      0.996625
  H       1.738824      2.445407     -1.722306
  H      -0.952128      3.476873     -2.716372
  H       0.795784     -1.326278      3.122868
  H      -0.528121      2.398185      2.189154
  H       0.754474      3.343531      2.990064
  H      -0.386098      1.506693     -0.445895
  H      -2.846905      1.616690     -0.035252
  H      -2.489768      0.936866     -1.633004
  H      -3.054108      2.624483     -1.479770
  H       2.711973      2.091115      4.746315
  H       4.910498      0.863022      3.824610
  H       2.880988     -2.603184      3.659689
  H      -0.534609      5.383642     -1.336980
  H       1.246209      4.722399     -3.247052
  H      -1.033304      1.496154     -3.619271
  H      -4.368217     -2.061802     -1.753399
  H       1.686388     -0.361964     -0.569928
  H      -0.975714     -2.668352     -3.063153
  H      -6.072676     -2.526280      2.181321
  H       0.429483     -2.123437     -5.038815
  H      -4.636928     -2.600812      3.857868
  H      -7.269275     -2.427140      0.240816
  H       4.042406     -0.109325     -2.980115
  H       2.955715      0.262030     -4.826494
73
Coordinates from ORCA-job Rutin E -2249.156765148376
  O       0.906601      0.257812      1.788436
  O       1.095103      2.923407      0.974031
  O      -0.965727      3.500223     -0.016174
  O       3.134063      2.341999      3.863018
  O       4.692616      0.003198      3.405479
  O       0.946242     -1.931133      1.169816
  O       3.236633     -2.424282      2.793546
  O       0.484446      5.556134     -1.433831
  O       1.636057      3.828590     -3.222410
  O      -0.268040      1.631576     -3.126591
  O      -1.965970     -2.024646     -0.953993
  O      -1.098099     -2.445445      3.002706
  O      -3.769685     -2.543585      3.457663
  O      -6.594059     -2.419335     -0.434949
  O       3.349627      0.210453     -2.440044
  O       2.585341     -0.608023     -4.968874
  C       1.209515      1.278725      2.729738
  C       2.731381      1.346489      2.918939
  C       3.282175     -0.024330      3.335633
  C       2.832982     -1.136029      2.376627
  C       1.093714      4.358998     -0.931780
  C       0.346855      3.919620      0.327100
  C       1.084730      3.283859     -2.036160
  C      -0.342606      2.753466     -2.255463
  C       1.309086     -1.046877      2.201286
  C       0.569586      2.569092      2.249165
  C      -0.988907      2.359383     -0.911281
  C      -2.439793      1.914930     -1.028017
  C      -0.377166     -1.977466      0.802022
  C      -0.673918     -1.854855     -0.526657
  C      -1.397534     -2.273219      1.816820
  C      -2.779827     -2.293879      1.301200
  C       0.226484     -1.576259     -1.654649
  C      -3.001462     -2.187313     -0.086374
  C      -3.933398     -2.450290      2.116529
  C      -4.263457     -2.226089     -0.676637
  C       1.418550     -0.845547     -1.498258
  C      -0.121674     -2.026333     -2.943973
  C      -5.205674     -2.492545      1.544648
  C      -5.367382     -2.383690      0.154588
  C       2.207509     -0.557514     -2.597817
  C       0.667361     -1.721811     -4.048904
  C       1.822827     -0.960350     -3.885944
  H       0.743890      1.038807      3.706610
  H       3.193515      1.646515      1.974217
  H       2.851837     -0.259713      4.335518
  H       3.310397     -0.977245      1.404275
  H       2.125211      4.625697     -0.685087
  H       0.192123      4.786386      0.986455
  H       1.724101      2.444108     -1.740319
  H      -0.944708      3.557855     -2.710903
  H       0.780481     -1.308659      3.127593
  H      -0.515679      2.431935      2.186112
  H       0.783931      3.364390      2.979426
  H      -0.393933      1.552919     -0.467915
  H      -2.852955      1.700666     -0.037414
  H      -2.508903      1.000812     -1.627723
  H      -3.055326      2.696206     -1.492592
  H       2.734042      2.116181      4.721182
  H       4.914381      0.861113      3.808982
  H       2.858072     -2.592435      3.672638
  H      -0.477669      5.431644     -1.351780
  H       1.289286      4.739177     -3.260175
  H      -1.092595      1.577405     -3.630159
  H      -4.378760     -2.134981     -1.749617
  H       1.718242     -0.458149     -0.533908
  H      -1.027414     -2.606334     -3.081094
  H      -6.079348     -2.609297      2.185662
  H       0.385856     -2.045002     -5.046502
  H      -4.643679     -2.659607      3.865320
  H      -7.275969     -2.529932      0.246322
  H       4.074955     -0.219697     -2.924305
  H       2.987213      0.256027     -4.765433
73
Coordinates from ORCA-job Rutin E -2249.157390098455
  O       0.893735      0.250819      1.777200
  O       1.126407      2.933261      0.940705
  O      -0.908165      3.518542     -0.092787
  O       3.122819      2.355090      3.830830
  O       4.654225     -0.011181      3.453759
  O       0.924231     -1.957436      1.201197
  O       3.181215     -2.434039      2.876998
  O       0.574117      5.599948     -1.450403
  O       1.759293      3.896591     -3.238780
  O      -0.142642      1.708650     -3.223691
  O      -2.003315     -2.056711     -0.910646
  O      -1.096809     -2.508515      3.032583
  O      -3.763586     -2.684786      3.504415
  O      -6.620932     -2.525337     -0.361324
  O       3.271813      0.254938     -2.422622
  O       2.439350     -0.459084     -4.959384
  C       1.197338      1.285800      2.704957
  C       2.717657      1.342169      2.906150
  C       3.245661     -0.024294      3.363564
  C       2.797184     -1.152623      2.423349
  C       1.170444      4.393888     -0.950909
  C       0.394076      3.937422      0.285899
  C       1.184526      3.334773     -2.071811
  C      -0.238241      2.804845     -2.323898
  C       1.276401     -1.051818      2.219691
  C       0.573478      2.577674      2.204595
  C      -0.900084      2.383042     -0.995320
  C      -2.340804      1.915653     -1.137030
  C      -0.400044     -2.015955      0.830962
  C      -0.707099     -1.882131     -0.493286
  C      -1.410801     -2.330859      1.851748
  C      -2.795119     -2.374472      1.345826
  C       0.174597     -1.571529     -1.627639
  C      -3.029345     -2.246659     -0.037717
  C      -3.939839     -2.566283      2.166399
  C      -4.295316     -2.291147     -0.619141
  C       1.372064     -0.848939     -1.472440
  C      -0.201408     -1.976231     -2.924857
  C      -5.215162     -2.617968      1.603745
  C      -5.389757     -2.482531      0.217944
  C       2.133083     -0.518753     -2.580216
  C       0.561881     -1.631524     -4.035955
  C       1.716449     -0.868170     -3.873363
  H       0.722230      1.064317      3.681693
  H       3.191886      1.613066      1.958745
  H       2.796701     -0.229566      4.361780
  H       3.293031     -1.022242      1.455817
  H       2.195817      4.654913     -0.675767
  H       0.223910      4.795620      0.951812
  H       1.819255      2.492613     -1.775403
  H      -0.837906      3.618083     -2.767841
  H       0.732302     -1.293424      3.142819
  H      -0.510283      2.439866      2.116307
  H       0.772341      3.373662      2.938206
  H      -0.298806      1.584994     -0.546155
  H      -2.769877      1.711048     -0.151170
  H      -2.382616      0.988832     -1.719335
  H      -2.959120      2.678251     -1.627923
  H       2.715104      2.153080      4.691262
  H       4.882592      0.855133      3.834638
  H       2.779077     -2.583598      3.748894
  H      -0.389605      5.473945     -1.398817
  H       1.412641      4.807140     -3.272983
  H      -0.981125      1.625210     -3.699719
  H      -4.421332     -2.181885     -1.689143
  H       1.699664     -0.502261     -0.502982
  H      -1.109583     -2.551703     -3.063258
  H      -6.081676     -2.760014      2.249282
  H       0.255865     -1.917813     -5.037703
  H      -4.631385     -2.824729      3.917621
  H      -7.294959     -2.661903      0.323038
  H       3.998424     -0.163810     -2.915013
  H       2.849557      0.392945     -4.722397
73
Coordinates from ORCA-job Rutin E -2249.157745333558
  O       0.891893      0.234658      1.750422
  O       1.136882      2.956865      0.929434
  O      -0.877214      3.592738     -0.108701
  O       3.126394      2.360377      3.776573
  O       4.638528     -0.021247      3.447672
  O       0.906350     -1.998078      1.225772
  O       3.154967     -2.442173      2.925641
  O       0.633240      5.703068     -1.390409
  O       1.818335      4.040616     -3.214615
  O      -0.067493      1.853781     -3.268526
  O      -2.029801     -2.088965     -0.892482
  O      -1.109822     -2.503600      3.054452
  O      -3.771516     -2.773621      3.523551
  O      -6.639857     -2.609552     -0.330020
  O       3.165487      0.307989     -2.464046
  O       2.389118     -0.551596     -4.972904
  C       1.193157      1.276474      2.674507
  C       2.713996      1.333827      2.868743
  C       3.232081     -0.026723      3.355184
  C       2.776652     -1.172017      2.438136
  C       1.217494      4.478886     -0.917341
  C       0.423194      3.990074      0.299059
  C       1.236173      3.449947     -2.066302
  C      -0.184734      2.921844     -2.341277
  C       1.255399     -1.063902      2.220567
  C       0.566446      2.571071      2.177993
  C      -0.858034      2.470411     -1.028577
  C      -2.296392      2.004698     -1.195131
  C      -0.418817     -2.045288      0.844463
  C      -0.730119     -1.925059     -0.477283
  C      -1.432826     -2.332566      1.876377
  C      -2.812347     -2.418308      1.367517
  C       0.152779     -1.632342     -1.618701
  C      -3.049374     -2.288922     -0.014774
  C      -3.953209     -2.638754      2.187309
  C      -4.317460     -2.341963     -0.593006
  C       1.313593     -0.849217     -1.479155
  C      -0.189058     -2.111974     -2.898785
  C      -5.227903     -2.705676      1.628038
  C      -5.407169     -2.555931      0.244357
  C       2.071871     -0.532001     -2.595371
  C       0.575586     -1.786302     -4.015667
  C       1.687001     -0.956783     -3.876096
  H       0.720777      1.053681      3.651596
  H       3.184357      1.585808      1.914975
  H       2.780355     -0.204204      4.357218
  H       3.278325     -1.069615      1.470123
  H       2.240789      4.726422     -0.624590
  H       0.255235      4.825161      0.993073
  H       1.868333      2.600752     -1.791154
  H      -0.785353      3.742250     -2.771987
  H       0.705242     -1.283013      3.145737
  H      -0.513169      2.416930      2.065297
  H       0.740438      3.358307      2.925949
  H      -0.260403      1.667137     -0.584866
  H      -2.742361      1.818161     -0.212995
  H      -2.329788      1.064494     -1.757255
  H      -2.905089      2.758235     -1.710498
  H       2.727626      2.171062      4.643764
  H       4.878035      0.855335      3.796222
  H       2.725864     -2.585567      3.785420
  H      -0.331126      5.575785     -1.362342
  H       1.480829      4.954793     -3.228447
  H      -0.924550      1.711952     -3.695798
  H      -4.446503     -2.230903     -1.662486
  H       1.619464     -0.459780     -0.520542
  H      -1.068640     -2.733407     -3.021236
  H      -6.090492     -2.867012      2.273949
  H       0.297650     -2.131753     -5.006880
  H      -4.634669     -2.927513      3.941024
  H      -7.309172     -2.767925      0.354122
  H       3.928290     -0.101485     -2.907028
  H       2.741933      0.335046     -4.771359
73
Coordinates from ORCA-job Rutin E -2249.158471736248
  O       0.883907      0.221284      1.738775
  O       1.143624      2.934352      0.894572
  O      -0.838609      3.549669     -0.220661
  O       3.089558      2.365715      3.775697
  O       4.605192     -0.021456      3.489333
  O       0.892736     -2.011195      1.243873
  O       3.124495     -2.447024      2.968557
  O       0.697560      5.709438     -1.398417
  O       1.962789      4.098614     -3.214288
  O       0.096293      1.916466     -3.403076
  O      -2.073577     -2.084527     -0.831127
  O      -1.090714     -2.592323      3.090064
  O      -3.739509     -2.927332      3.586313
  O      -6.668126     -2.668971     -0.216685
  O       3.123459      0.333473     -2.399009
  O       2.250131     -0.347955     -4.928701
  C       1.171201      1.272500      2.654738
  C       2.689546      1.330994      2.871724
  C       3.200448     -0.026134      3.378821
  C       2.754742     -1.180020      2.467006
  C       1.274305      4.479428     -0.932703
  C       0.439567      3.961382      0.243620
  C       1.343376      3.477021     -2.103164
  C      -0.062900      2.946778     -2.441751
  C       1.237052     -1.069974      2.231245
  C       0.545640      2.555518      2.131873
  C      -0.768253      2.447522     -1.164094
  C      -2.191442      1.956454     -1.387067
  C      -0.437326     -2.071572      0.881024
  C      -0.769113     -1.919579     -0.431860
  C      -1.432140     -2.403685      1.919822
  C      -2.817601     -2.492452      1.429269
  C       0.089770     -1.585290     -1.579411
  C      -3.076860     -2.322783      0.055430
  C      -3.943707     -2.750623      2.258525
  C      -4.352671     -2.370510     -0.505487
  C       1.274113     -0.839475     -1.429217
  C      -0.300335     -1.979119     -2.875239
  C      -5.226025     -2.813054      1.716377
  C      -5.427516     -2.621514      0.340590
  C       2.006387     -0.473499     -2.546644
  C       0.437386     -1.601127     -3.993728
  C       1.573303     -0.806942     -3.838936
  H       0.684602      1.060974      3.627086
  H       3.173672      1.575738      1.922952
  H       2.735485     -0.192778      4.376756
  H       3.267785     -1.085679      1.504004
  H       2.284160      4.729307     -0.597858
  H       0.230723      4.786288      0.938947
  H       1.971577      2.624788     -1.825985
  H      -0.660848      3.775754     -2.860951
  H       0.676055     -1.273546      3.152830
  H      -0.529144      2.389055      1.993849
  H       0.693947      3.351540      2.875872
  H      -0.169250      1.645974     -0.719587
  H      -2.667987      1.757629     -0.421787
  H      -2.189377      1.016467     -1.952222
  H      -2.796332      2.700760     -1.919910
  H       2.680182      2.183252      4.639412
  H       4.841225      0.859709      3.829022
  H       2.671316     -2.591391      3.815748
  H      -0.265810      5.570869     -1.415351
  H       1.619515      5.010775     -3.219574
  H      -0.763485      1.726033     -3.806567
  H      -4.498725     -2.227330     -1.568946
  H       1.615294     -0.510087     -0.459457
  H      -1.198355     -2.571451     -3.008112
  H      -6.077066     -3.004527      2.369294
  H       0.121452     -1.878401     -4.994898
  H      -4.594749     -3.100104      4.012642
  H      -7.325624     -2.854917      0.471970
  H       3.872167     -0.077652     -2.863705
  H       2.643138      0.508376     -4.675854
73
Coordinates from ORCA-job Rutin E -2249.158927930243
  O       0.876666      0.201226      1.730509
  O       1.141409      2.916028      0.868090
  O      -0.809012      3.505172     -0.314065
  O       3.068332      2.373369      3.750662
  O       4.585102     -0.019131      3.502758
  O       0.878500     -2.034045      1.268467
  O       3.104425     -2.453279      3.004766
  O       0.717255      5.741511     -1.364106
  O       2.079904      4.218893     -3.184359
  O       0.278502      2.012414     -3.519218
  O      -2.106567     -2.093134     -0.776064
  O      -1.084434     -2.649888      3.129630
  O      -3.725782     -3.030864      3.638285
  O      -6.690215     -2.710333     -0.133585
  O       3.063486      0.357557     -2.371929
  O       2.112620     -0.217652     -4.899758
  C       1.154262      1.263742      2.635716
  C       2.671444      1.326243      2.860111
  C       3.180957     -0.025123      3.386786
  C       2.738573     -1.191670      2.488302
  C       1.303530      4.508780     -0.918925
  C       0.439170      3.938951      0.209640
  C       1.437131      3.547131     -2.117321
  C       0.056519      2.995633     -2.522569
  C       1.223152     -1.081869      2.244412
  C       0.521100      2.532105      2.091929
  C      -0.673907      2.432928     -1.284925
  C      -2.075673      1.904192     -1.562106
  C      -0.454756     -2.100649      0.919826
  C      -0.799881     -1.929559     -0.387381
  C      -1.436351     -2.461230      1.962418
  C      -2.825805     -2.549664      1.482873
  C       0.040950     -1.574331     -1.541981
  C      -3.098978     -2.354654      0.115001
  C      -3.943895     -2.828309      2.316935
  C      -4.378697     -2.397861     -0.436291
  C       1.236611     -0.844934     -1.396508
  C      -0.384486     -1.920658     -2.840071
  C      -5.230868     -2.885031      1.784728
  C      -5.445222     -2.668625      0.413850
  C       1.940072     -0.441889     -2.518616
  C       0.324451     -1.504519     -3.963595
  C       1.469157     -0.721803     -3.811081
  H       0.662531      1.062437      3.607686
  H       3.158255      1.560325      1.909671
  H       2.711084     -0.179012      4.384741
  H       3.254504     -1.107898      1.525855
  H       2.295219      4.769714     -0.540687
  H       0.179410      4.742191      0.913402
  H       2.075304      2.699281     -1.847150
  H      -0.552503      3.824248     -2.927996
  H       0.656691     -1.266757      3.166816
  H      -0.546883      2.345032      1.929547
  H       0.637392      3.334876      2.834764
  H      -0.064443      1.637325     -0.844081
  H      -2.580059      1.693640     -0.613550
  H      -2.033732      0.962120     -2.122998
  H      -2.681776      2.632270     -2.115626
  H       2.659854      2.199735      4.616692
  H       4.819135      0.867074      3.830788
  H       2.622403     -2.602335      3.835106
  H      -0.240825      5.580836     -1.429078
  H       1.714243      5.122286     -3.173405
  H      -0.575430      1.732233     -3.882069
  H      -4.533549     -2.235210     -1.495667
  H       1.600650     -0.544125     -0.425318
  H      -1.291508     -2.500013     -2.970179
  H      -6.075342     -3.094155      2.440801
  H      -0.021480     -1.740194     -4.965519
  H      -4.576979     -3.209873      4.070221
  H      -7.341206     -2.911229      0.557045
  H       3.807938     -0.050777     -2.845582
  H       2.518052      0.624686     -4.619869
73
Coordinates from ORCA-job Rutin E -2249.159376480341
  O       0.868046      0.183572      1.721653
  O       1.130624      2.909838      0.854941
  O      -0.790664      3.492907     -0.376422
  O       3.051047      2.381126      3.721239
  O       4.574891     -0.009867      3.490407
  O       0.868427     -2.055752      1.285115
  O       3.098387     -2.454351      3.019972
  O       0.724536      5.786757     -1.312451
  O       2.167964      4.341290     -3.133104
  O       0.426481      2.119249     -3.591480
  O      -2.127348     -2.125230     -0.739687
  O      -1.082159     -2.679387      3.161682
  O      -3.720004     -3.081332      3.679477
  O      -6.704581     -2.751646     -0.077063
  O       3.009599      0.357541     -2.366611
  O       2.015033     -0.178255     -4.888481
  C       1.137636      1.254791      2.619757
  C       2.654694      1.324566      2.842070
  C       3.170246     -0.021190      3.379035
  C       2.729348     -1.198371      2.493082
  C       1.318724      4.551345     -0.886415
  C       0.432079      3.935908      0.198246
  C       1.505778      3.627569     -2.106335
  C       0.149094      3.062457     -2.570356
  C       1.214433     -1.092899      2.249966
  C       0.494145      2.512454      2.065685
  C      -0.606991      2.450559     -1.370647
  C      -1.993901      1.905154     -1.695600
  C      -0.466648     -2.131399      0.947211
  C      -0.819956     -1.961189     -0.358075
  C      -1.440133     -2.499167      1.994900
  C      -2.832082     -2.591656      1.521856
  C       0.010394     -1.602757     -1.519269
  C      -3.113131     -2.393237      0.156019
  C      -3.945937     -2.874346      2.360596
  C      -4.394987     -2.436543     -0.389581
  C       1.207417     -0.873517     -1.381985
  C      -0.433818     -1.933351     -2.814674
  C      -5.235686     -2.930603      1.834396
  C      -5.457189     -2.710435      0.464551
  C       1.889472     -0.447792     -2.508138
  C       0.254008     -1.495238     -3.943302
  C       1.397504     -0.708490     -3.797926
  H       0.646299      1.057112      3.592662
  H       3.137199      1.552817      1.887632
  H       2.703758     -0.167810      4.379753
  H       3.242425     -1.121449      1.528572
  H       2.294320      4.818633     -0.472159
  H       0.132958      4.716445      0.911961
  H       2.149858      2.781536     -1.842589
  H      -0.466220      3.890291     -2.969061
  H       0.647838     -1.264140      3.175242
  H      -0.567202      2.306755      1.883397
  H       0.582433      3.316663      2.811163
  H       0.003292      1.653576     -0.933949
  H      -2.524881      1.692139     -0.762184
  H      -1.930723      0.960273     -2.249919
  H      -2.591071      2.625989     -2.268031
  H       2.649449      2.211447      4.591303
  H       4.806579      0.880173      3.809682
  H       2.589545     -2.613609      3.832263
  H      -0.227077      5.610062     -1.419111
  H       1.784671      5.237099     -3.108279
  H      -0.409172      1.745629     -3.911665
  H      -4.553832     -2.270632     -1.447848
  H       1.580980     -0.579183     -0.412181
  H      -1.342061     -2.512254     -2.938289
  H      -6.076634     -3.144620      2.493434
  H      -0.107751     -1.715358     -4.943200
  H      -4.569334     -3.256819      4.116576
  H      -7.352249     -2.954636      0.616077
  H       3.756229     -0.047219     -2.839665
  H       2.411282      0.665904     -4.600245
73
Coordinates from ORCA-job Rutin E -2249.159981763604
  O       0.856281      0.186657      1.713800
  O       1.146595      2.919351      0.843063
  O      -0.745840      3.537347     -0.416618
  O       3.025570      2.388562      3.724145
  O       4.552979     -0.001073      3.498152
  O       0.854913     -2.058968      1.291424
  O       3.078187     -2.447057      3.033970
  O       0.812297      5.814166     -1.314599
  O       2.259569      4.363523     -3.124945
  O       0.503702      2.158271     -3.619822
  O      -2.144589     -2.190200     -0.724961
  O      -1.079190     -2.700216      3.177463
  O      -3.710478     -3.121483      3.709302
  O      -6.712488     -2.865350     -0.039941
  O       2.942351      0.384506     -2.353736
  O       1.918016     -0.109121     -4.877224
  C       1.118965      1.263366      2.609723
  C       2.634081      1.331501      2.843770
  C       3.147581     -0.013352      3.383529
  C       2.711214     -1.193399      2.499829
  C       1.383307      4.568097     -0.888161
  C       0.473873      3.958689      0.180170
  C       1.575974      3.650724     -2.110967
  C       0.220736      3.101960     -2.598539
  C       1.198051     -1.089062      2.251168
  C       0.489456      2.524218      2.044606
  C      -0.564284      2.498786     -1.412547
  C      -1.959176      1.982912     -1.755654
  C      -0.479018     -2.159365      0.957873
  C      -0.839196     -2.005528     -0.348362
  C      -1.442929     -2.532680      2.010336
  C      -2.836241     -2.645131      1.543331
  C      -0.016973     -1.638949     -1.512590
  C      -3.124316     -2.463557      0.176793
  C      -3.943413     -2.931507      2.389307
  C      -4.407859     -2.527247     -0.363357
  C       1.171922     -0.896433     -1.376431
  C      -0.470395     -1.954192     -2.808205
  C      -5.234709     -3.007648      1.868510
  C      -5.463949     -2.804215      0.497093
  C       1.832614     -0.433521     -2.500124
  C       0.196342     -1.481361     -3.936350
  C       1.327503     -0.676241     -3.789602
  H       0.616286      1.069654      3.577635
  H       3.121980      1.558845      1.891604
  H       2.680112     -0.159382      4.383628
  H       3.227532     -1.119613      1.536873
  H       2.357183      4.819881     -0.460101
  H       0.173225      4.739957      0.892347
  H       2.205933      2.795075     -1.845670
  H      -0.377722      3.936984     -3.007588
  H       0.627769     -1.253132      3.175933
  H      -0.570652      2.325499      1.847839
  H       0.571488      3.328576      2.790909
  H       0.023815      1.687337     -0.971838
  H      -2.510250      1.800871     -0.827334
  H      -1.917988      1.027170     -2.292062
  H      -2.528100      2.710460     -2.348075
  H       2.620424      2.218262      4.592461
  H       4.782696      0.888379      3.820161
  H       2.539510     -2.617733      3.824444
  H      -0.139598      5.651812     -1.439013
  H       1.884287      5.262733     -3.100594
  H      -0.325106      1.736777     -3.896554
  H      -4.571406     -2.372385     -1.422597
  H       1.549048     -0.614447     -0.404759
  H      -1.372397     -2.542412     -2.931773
  H      -6.070682     -3.226256      2.532364
  H      -0.173796     -1.687181     -4.936265
  H      -4.556879     -3.297587      4.151795
  H      -7.355702     -3.067161      0.657696
  H       3.689907     -0.001377     -2.840850
  H       2.277746      0.748512     -4.579638
73
Coordinates from ORCA-job Rutin E -2249.160593364016
  O       0.837338      0.197671      1.712360
  O       1.160436      2.938588      0.849391
  O      -0.711035      3.621978     -0.402673
  O       2.994994      2.390077      3.746159
  O       4.538655      0.012606      3.487898
  O       0.845608     -2.045966      1.275409
  O       3.069161     -2.437643      3.016131
  O       0.909935      5.852012     -1.296796
  O       2.315172      4.367438     -3.111600
  O       0.479930      2.214748     -3.617193
  O      -2.143890     -2.292217     -0.738030
  O      -1.075280     -2.680508      3.177440
  O      -3.708377     -3.060679      3.729599
  O      -6.706066     -3.000971     -0.032758
  O       2.897186      0.375125     -2.365692
  O       1.902897     -0.179592     -4.904768
  C       1.097529      1.273537      2.611869
  C       2.610789      1.340091      2.854967
  C       3.129975     -0.006897      3.379312
  C       2.700142     -1.181201      2.486675
  C       1.445559      4.589878     -0.872793
  C       0.521480      4.002610      0.194467
  C       1.610780      3.672188     -2.097251
  C       0.240350      3.169203     -2.588115
  C       1.187908     -1.081593      2.241373
  C       0.487001      2.544230      2.043508
  C      -0.566404      2.590316     -1.405127
  C      -1.983418      2.132923     -1.746423
  C      -0.484329     -2.176076      0.949051
  C      -0.846271     -2.066650     -0.363277
  C      -1.440697     -2.533074      2.007349
  C      -2.835762     -2.669469      1.545066
  C      -0.019651     -1.712561     -1.528186
  C      -3.123614     -2.544710      0.172020
  C      -3.939071     -2.932023      2.401857
  C      -4.405619     -2.647213     -0.365553
  C       1.144801     -0.931930     -1.396503
  C      -0.448326     -2.065453     -2.821960
  C      -5.229566     -3.044678      1.883003
  C      -5.459707     -2.901856      0.504336
  C       1.805652     -0.463272     -2.517526
  C       0.216240     -1.589742     -3.951256
  C       1.319953     -0.745900     -3.808621
  H       0.583684      1.079049      3.573814
  H       3.102027      1.575382      1.906175
  H       2.671642     -0.168969      4.380260
  H       3.216965     -1.098831      1.524868
  H       2.428247      4.812018     -0.447911
  H       0.243665      4.789576      0.909624
  H       2.211228      2.795541     -1.835747
  H      -0.325818      4.023805     -2.999914
  H       0.618744     -1.254252      3.166125
  H      -0.575012      2.364863      1.838194
  H       0.572780      3.344082      2.794515
  H      -0.009483      1.751644     -0.972764
  H      -2.539805      1.981382     -0.815899
  H      -1.994344      1.175897     -2.281221
  H      -2.519448      2.885633     -2.338156
  H       2.587901      2.208987      4.611419
  H       4.761315      0.896753      3.828708
  H       2.496464     -2.629559      3.777369
  H      -0.047936      5.723292     -1.412031
  H       1.965349      5.276936     -3.082393
  H      -0.363852      1.799781     -3.856079
  H      -4.568901     -2.533510     -1.430133
  H       1.502316     -0.629609     -0.424533
  H      -1.329448     -2.684268     -2.944091
  H      -6.063872     -3.247149      2.554097
  H      -0.134921     -1.826346     -4.951254
  H      -4.554331     -3.231362      4.175083
  H      -7.348623     -3.179290      0.671955
  H       3.643787      0.014955     -2.873584
  H       2.162992      0.724122     -4.638038
73
Coordinates from ORCA-job Rutin E -2249.161600637612
  O       0.828048      0.190544      1.703597
  O       1.185196      2.923720      0.820127
  O      -0.657716      3.637161     -0.457871
  O       2.948484      2.392483      3.767748
  O       4.495858      0.013027      3.554905
  O       0.842139     -2.055491      1.283197
  O       3.031076     -2.438591      3.072271
  O       1.017009      5.844905     -1.325036
  O       2.410627      4.343211     -3.133365
  O       0.527091      2.244478     -3.679265
  O      -2.157928     -2.331360     -0.715868
  O      -1.051003     -2.735221      3.185174
  O      -3.676565     -3.135364      3.762385
  O      -6.708243     -3.085280      0.028585
  O       2.814955      0.457803     -2.345679
  O       1.776995     -0.033028     -4.881681
  C       1.076443      1.273002      2.597472
  C       2.584143      1.337281      2.874149
  C       3.089230     -0.006309      3.418807
  C       2.676335     -1.185281      2.524361
  C       1.522407      4.570210     -0.900867
  C       0.573922      3.997361      0.154744
  C       1.681657      3.656684     -2.129782
  C       0.305301      3.188445     -2.635553
  C       1.169379     -1.085402      2.248003
  C       0.487552      2.544091      2.005974
  C      -0.516402      2.609201     -1.464401
  C      -1.933616      2.167897     -1.823526
  C      -0.486231     -2.202058      0.957679
  C      -0.860077     -2.088699     -0.351264
  C      -1.430062     -2.575593      2.020951
  C      -2.827576     -2.724425      1.571101
  C      -0.049611     -1.704033     -1.518138
  C      -3.128416     -2.595441      0.201401
  C      -3.919333     -3.002727      2.436726
  C      -4.414609     -2.706203     -0.324272
  C       1.104675     -0.907667     -1.386067
  C      -0.487753     -2.036794     -2.814817
  C      -5.213260     -3.126044      1.929248
  C      -5.457760     -2.977032      0.554468
  C       1.741149     -0.400454     -2.504950
  C       0.151835     -1.521651     -3.941123
  C       1.236151     -0.654347     -3.793952
  H       0.540318      1.090381      3.549470
  H       3.098459      1.564146      1.936181
  H       2.612560     -0.162149      4.411668
  H       3.215339     -1.111135      1.574013
  H       2.504531      4.769745     -0.464039
  H       0.301796      4.789538      0.866162
  H       2.261730      2.767046     -1.868137
  H      -0.241087      4.059349     -3.039373
  H       0.584610     -1.254359      3.163499
  H      -0.572594      2.373812      1.783492
  H       0.567606      3.348814      2.751925
  H       0.028843      1.762405     -1.032253
  H      -2.501356      2.018876     -0.899513
  H      -1.948173      1.212958     -2.363027
  H      -2.454913      2.928622     -2.418161
  H       2.521632      2.217218      4.624565
  H       4.712402      0.898854      3.895303
  H       2.432450     -2.629106      3.813644
  H       0.057310      5.738352     -1.446570
  H       2.079720      5.259725     -3.101904
  H      -0.324899      1.849548     -3.921881
  H      -4.590020     -2.587288     -1.386364
  H       1.473416     -0.625320     -0.413121
  H      -1.358806     -2.668911     -2.940712
  H      -6.039255     -3.339525      2.607151
  H      -0.211949     -1.738932     -4.941020
  H      -4.515951     -3.323663      4.213056
  H      -7.342156     -3.274402      0.738313
  H       3.551674      0.145040     -2.897701
  H       1.990966      0.877251     -4.594664
73
Coordinates from ORCA-job Rutin E -2249.162657958780
  O       0.816165      0.189634      1.700186
  O       1.197753      2.909145      0.793342
  O      -0.620160      3.652941     -0.506423
  O       2.901723      2.402000      3.788679
  O       4.452729      0.021216      3.623518
  O       0.841595     -2.053146      1.286900
  O       2.994310     -2.433647      3.124678
  O       1.118619      5.829741     -1.356663
  O       2.503130      4.290604     -3.146915
  O       0.545684      2.276271     -3.738834
  O      -2.170325     -2.354016     -0.692551
  O      -1.022262     -2.794872      3.189438
  O      -3.638835     -3.215870      3.792001
  O      -6.705125     -3.169645      0.088669
  O       2.810499      0.447576     -2.323253
  O       1.690008      0.089701     -4.853135
  C       1.055528      1.276929      2.586960
  C       2.557679      1.339981      2.894502
  C       3.049648      0.000570      3.460331
  C       2.654215     -1.182334      2.562137
  C       1.587537      4.542709     -0.926478
  C       0.612551      3.991250      0.118956
  C       1.738533      3.625725     -2.155480
  C       0.353254      3.207086     -2.676163
  C       1.152944     -1.083152      2.255332
  C       0.483175      2.546072      1.974312
  C      -0.485157      2.627494     -1.518630
  C      -1.898818      2.202672     -1.902618
  C      -0.486544     -2.215804      0.965475
  C      -0.873315     -2.089086     -0.338813
  C      -1.415949     -2.616053      2.032543
  C      -2.815352     -2.773370      1.595899
  C      -0.079446     -1.680013     -1.508286
  C      -3.130918     -2.633927      0.230347
  C      -3.894765     -3.073988      2.469039
  C      -4.420330     -2.755533     -0.284207
  C       1.090498     -0.905151     -1.377770
  C      -0.547582     -1.965623     -2.806968
  C      -5.191147     -3.209438      1.972537
  C      -5.450819     -3.050020      0.602951
  C       1.715237     -0.377726     -2.494631
  C       0.075362     -1.421448     -3.928241
  C       1.170952     -0.570159     -3.777239
  H       0.501336      1.107858      3.531315
  H       3.094330      1.557070      1.966949
  H       2.552774     -0.150062      4.443725
  H       3.215818     -1.113176      1.624347
  H       2.567848      4.716458     -0.475832
  H       0.350839      4.790893      0.825786
  H       2.286750      2.719010     -1.885075
  H      -0.165815      4.099784     -3.067532
  H       0.554733     -1.252750      3.161113
  H      -0.575593      2.383177      1.739948
  H       0.560876      3.356081      2.714299
  H       0.047834      1.772528     -1.087205
  H      -2.478025      2.032264     -0.989618
  H      -1.903715      1.261677     -2.467118
  H      -2.409199      2.979340     -2.486178
  H       2.454200      2.234448      4.636348
  H       4.662465      0.907515      3.967079
  H       2.371318     -2.625180      3.845449
  H       0.157354      5.748137     -1.484001
  H       2.198194      5.216386     -3.121210
  H      -0.323256      1.953575     -4.022993
  H      -4.609469     -2.629016     -1.343003
  H       1.489564     -0.660844     -0.407078
  H      -1.429663     -2.581833     -2.936695
  H      -6.007969     -3.437346      2.656878
  H      -0.315849     -1.597890     -4.925816
  H      -4.470534     -3.426947      4.246798
  H      -7.329288     -3.373280      0.803004
  H       3.495968      0.197360     -2.965850
  H       1.869398      1.003367     -4.547670
73
Coordinates from ORCA-job Rutin E -2249.164631114901
  O       0.805415      0.197256      1.694926
  O       1.203572      2.906528      0.784265
  O      -0.594387      3.669295     -0.533383
  O       2.865848      2.412082      3.804533
  O       4.413955      0.026863      3.681650
  O       0.838611     -2.040701      1.283153
  O       2.953503     -2.428481      3.164306
  O       1.193142      5.834396     -1.353143
  O       2.585851      4.273665     -3.127314
  O       0.575631      2.333356     -3.774710
  O      -2.189315     -2.358214     -0.670049
  O      -0.998249     -2.836416      3.190949
  O      -3.603351     -3.285866      3.818131
  O      -6.705890     -3.238350      0.148528
  O       2.789355      0.432824     -2.346017
  O       1.654754      0.075039     -4.877402
  C       1.040239      1.282524      2.579465
  C       2.537765      1.343633      2.910906
  C       3.015838      0.007390      3.496210
  C       2.631948     -1.176753      2.591658
  C       1.635770      4.538211     -0.921081
  C       0.635407      3.995321      0.108607
  C       1.790736      3.621627     -2.153416
  C       0.401395      3.242912     -2.690497
  C       1.136602     -1.073097      2.255778
  C       0.475341      2.548548      1.956872
  C      -0.449631      2.647308     -1.552808
  C      -1.847728      2.217287     -1.973062
  C      -0.492226     -2.212351      0.969411
  C      -0.893058     -2.071067     -0.328554
  C      -1.407147     -2.641160      2.041832
  C      -2.807165     -2.804773      1.618841
  C      -0.115466     -1.650776     -1.504837
  C      -3.139268     -2.652470      0.258153
  C      -3.874253     -3.130784      2.498543
  C      -4.431354     -2.785140     -0.245748
  C       1.061784     -0.883846     -1.388069
  C      -0.599225     -1.934292     -2.799469
  C      -5.172113     -3.278551      2.013197
  C      -5.447716     -3.106561      0.649892
  C       1.685086     -0.373145     -2.516123
  C       0.022426     -1.403362     -3.926350
  C       1.125073     -0.560870     -3.790509
  H       0.474817      1.123163      3.519069
  H       3.092481      1.550590      1.991789
  H       2.498893     -0.138112      4.469896
  H       3.215620     -1.111300      1.666679
  H       2.609240      4.692875     -0.450679
  H       0.376527      4.795457      0.815752
  H       2.315918      2.703350     -1.874955
  H      -0.098134      4.153063     -3.066293
  H       0.528259     -1.243892      3.152886
  H      -0.580103      2.384062      1.708823
  H       0.543734      3.359277      2.696262
  H       0.083228      1.792367     -1.121005
  H      -2.440434      2.003011     -1.078370
  H      -1.813091      1.296732     -2.570810
  H      -2.358806      3.003993     -2.542466
  H       2.402063      2.251730      4.644722
  H       4.620632      0.912554      4.028953
  H       2.300471     -2.628494      3.855642
  H       0.231979      5.767384     -1.489639
  H       2.298677      5.205288     -3.106181
  H      -0.298434      2.106499     -4.126251
  H      -4.635312     -2.652102     -1.300854
  H       1.486068     -0.648254     -0.425336
  H      -1.485184     -2.547404     -2.922335
  H      -5.979106     -3.521148      2.704189
  H      -0.377240     -1.583232     -4.919958
  H      -4.425901     -3.522253      4.277183
  H      -7.318992     -3.459313      0.867259
  H       3.397147      0.294143     -3.092267
  H       1.763177      1.014825     -4.613372
73
Coordinates from ORCA-job Rutin E -2249.166820979328
  O       0.795303      0.221904      1.680287
  O       1.216133      2.917718      0.764615
  O      -0.557776      3.734192     -0.551464
  O       2.832303      2.428557      3.819894
  O       4.371226      0.032032      3.727849
  O       0.828193     -2.014735      1.271663
  O       2.898709     -2.416336      3.186708
  O       1.308213      5.845391     -1.367722
  O       2.655358      4.231106     -3.136423
  O       0.563402      2.382926     -3.804335
  O      -2.206959     -2.385560     -0.653723
  O      -0.973150     -2.881407      3.191670
  O      -3.567623     -3.370289      3.838678
  O      -6.700396     -3.346130      0.194606
  O       2.828014      0.318758     -2.338005
  O       1.682247      0.045831     -4.866101
  C       1.023524      1.306126      2.565274
  C       2.515627      1.359022      2.923079
  C       2.976802      0.020952      3.520822
  C       2.600367     -1.161131      2.609379
  C       1.701932      4.534258     -0.934784
  C       0.680931      4.023159      0.091556
  C       1.831344      3.611035     -2.167056
  C       0.429633      3.287025     -2.705979
  C       1.112813     -1.047812      2.247568
  C       0.472928      2.572140      1.930571
  C      -0.438522      2.708993     -1.571321
  C      -1.843332      2.311672     -1.998307
  C      -0.501273     -2.217862      0.972287
  C      -0.914192     -2.075573     -0.321130
  C      -1.396923     -2.679351      2.048873
  C      -2.797225     -2.860079      1.636919
  C      -0.147607     -1.645793     -1.500418
  C      -3.143908     -2.701175      0.279801
  C      -3.851877     -3.210920      2.522551
  C      -4.437442     -2.851315     -0.214683
  C       1.053619     -0.918109     -1.384268
  C      -0.657120     -1.890977     -2.793621
  C      -5.151126     -3.375918      2.046519
  C      -5.440604     -3.197210      0.686862
  C       1.685543     -0.417157     -2.512787
  C      -0.025249     -1.365187     -3.917948
  C       1.113472     -0.572069     -3.783002
  H       0.443393      1.156210      3.498008
  H       3.088438      1.560520      2.013354
  H       2.442305     -0.120803      4.485215
  H       3.202870     -1.097614      1.696455
  H       2.677580      4.653755     -0.458638
  H       0.444149      4.830307      0.798543
  H       2.319074      2.673602     -1.882606
  H      -0.038146      4.216027     -3.073877
  H       0.491526     -1.211348      3.137313
  H      -0.580337      2.412829      1.670356
  H       0.538297      3.386256      2.666761
  H       0.072485      1.841243     -1.139199
  H      -2.444349      2.095313     -1.109750
  H      -1.814087      1.398355     -2.606330
  H      -2.338181      3.112973     -2.561734
  H       2.353132      2.271233      4.651905
  H       4.578423      0.914624      4.082325
  H       2.199316     -2.638506      3.823886
  H       0.344767      5.814057     -1.501052
  H       2.403286      5.172848     -3.121400
  H      -0.316748      2.227371     -4.179570
  H      -4.653558     -2.714306     -1.266823
  H       1.500892     -0.710100     -0.425892
  H      -1.563452     -2.472626     -2.917443
  H      -5.948496     -3.635581      2.742473
  H      -0.437005     -1.518725     -4.911171
  H      -4.382106     -3.624582      4.302532
  H      -7.304161     -3.582291      0.916368
  H       3.317238      0.329100     -3.178813
  H       1.713823      1.003058     -4.640550
73
Coordinates from ORCA-job Rutin E -2249.168076030862
  O       0.792826      0.240376      1.667479
  O       1.239051      2.925954      0.745436
  O      -0.497771      3.796248     -0.585348
  O       2.805369      2.448703      3.827987
  O       4.330504      0.037334      3.774532
  O       0.814505     -2.003195      1.282806
  O       2.841346     -2.404180      3.227557
  O       1.437812      5.856201     -1.372195
  O       2.751619      4.208032     -3.136614
  O       0.617952      2.422048     -3.836174
  O      -2.215073     -2.432487     -0.632999
  O      -0.958984     -2.912742      3.209849
  O      -3.544100     -3.455951      3.858534
  O      -6.688447     -3.463703      0.220941
  O       2.782746      0.299896     -2.357734
  O       1.621194      0.071478     -4.853510
  C       1.009123      1.329429      2.551247
  C       2.495124      1.375092      2.934207
  C       2.939046      0.036628      3.547035
  C       2.567761     -1.149447      2.638376
  C       1.785979      4.532396     -0.942279
  C       0.742060      4.047298      0.070972
  C       1.902025      3.610424     -2.176889
  C       0.497561      3.324722     -2.730199
  C       1.089418     -1.025761      2.251347
  C       0.473433      2.592693      1.900053
  C      -0.398799      2.769281     -1.603196
  C      -1.814912      2.411834     -2.034443
  C      -0.509946     -2.235617      0.989917
  C      -0.927718     -2.103679     -0.303441
  C      -1.389319     -2.726710      2.066682
  C      -2.788175     -2.928216      1.657969
  C      -0.172897     -1.667064     -1.488611
  C      -3.141780     -2.769028      0.302248
  C      -3.836188     -3.297031      2.545257
  C      -4.434060     -2.936289     -0.189777
  C       1.026947     -0.939144     -1.379237
  C      -0.704380     -1.900275     -2.774853
  C      -5.135082     -3.478060      2.071910
  C      -5.430330     -3.298679      0.711914
  C       1.634145     -0.414549     -2.512315
  C      -0.090451     -1.357527     -3.902406
  C       1.050462     -0.566589     -3.774858
  H       0.412554      1.188110      3.475506
  H       3.082382      1.569814      2.031794
  H       2.388344     -0.095227      4.503686
  H       3.184896     -1.094402      1.734797
  H       2.760658      4.620472     -0.456184
  H       0.515993      4.859304      0.776432
  H       2.358271      2.657335     -1.890097
  H       0.057519      4.265353     -3.099874
  H       0.452546     -1.167964      3.135087
  H      -0.575635      2.434917      1.622860
  H       0.529294      3.412912      2.631054
  H       0.082102      1.887085     -1.166173
  H      -2.428373      2.222129     -1.148361
  H      -1.809797      1.491260     -2.630497
  H      -2.283029      3.221618     -2.608340
  H       2.316000      2.295821      4.654981
  H       4.539904      0.918490      4.130701
  H       2.089847     -2.653213      3.791472
  H       0.474785      5.856587     -1.513234
  H       2.528338      5.156835     -3.123578
  H      -0.262478      2.291328     -4.221789
  H      -4.653767     -2.799233     -1.241187
  H       1.486979     -0.736461     -0.425233
  H      -1.612142     -2.480412     -2.889769
  H      -5.926893     -3.752641      2.768477
  H      -0.513439     -1.500880     -4.892691
  H      -4.354430     -3.716971      4.326021
  H      -7.288059     -3.710656      0.942551
  H       3.129280      0.489218     -3.248230
  H       1.484454      1.033230     -4.691758
73
Coordinates from ORCA-job Rutin E -2249.168664688696
  O       0.806747      0.291654      1.668787
  O       1.308626      2.943872      0.715882
  O      -0.424089      3.917496     -0.553469
  O       2.846191      2.466676      3.839981
  O       4.295364      0.008389      3.847132
  O       0.784429     -1.962535      1.306569
  O       2.739738     -2.390654      3.309347
  O       1.615356      5.803310     -1.487873
  O       2.696551      4.030080     -3.281785
  O       0.406529      2.373969     -3.812865
  O      -2.217553     -2.437785     -0.646871
  O      -0.978475     -2.893013      3.206992
  O      -3.543482     -3.549619      3.825276
  O      -6.658295     -3.642858      0.161798
  O       2.845958      0.233434     -2.337762
  O       1.742959      0.041822     -4.814112
  C       1.035534      1.383463      2.550622
  C       2.516342      1.392507      2.953972
  C       2.908815      0.049261      3.590882
  C       2.519000     -1.138220      2.694204
  C       1.883036      4.466301     -1.043245
  C       0.862132      4.083964      0.034714
  C       1.863973      3.515956     -2.261627
  C       0.414365      3.315551     -2.731900
  C       1.053898     -0.978272      2.270961
  C       0.546595      2.661109      1.888456
  C      -0.460118      2.863002     -1.544180
  C      -1.922760      2.617683     -1.891937
  C      -0.531622     -2.208632      0.993055
  C      -0.937158     -2.087203     -0.305803
  C      -1.405787     -2.725395      2.060177
  C      -2.792319     -2.975958      1.636738
  C      -0.174426     -1.642796     -1.485688
  C      -3.138595     -2.818134      0.279358
  C      -3.833735     -3.389209      2.512736
  C      -4.421399     -3.031358     -0.223199
  C       1.045428     -0.954767     -1.358755
  C      -0.715199     -1.834742     -2.775459
  C      -5.122175     -3.613463      2.028394
  C      -5.411837     -3.434997      0.665833
  C       1.673034     -0.433710     -2.483699
  C      -0.075380     -1.301536     -3.894930
  C       1.103408     -0.571417     -3.752034
  H       0.422297      1.260329      3.466630
  H       3.121298      1.561129      2.057921
  H       2.336106     -0.049705      4.538520
  H       3.155519     -1.114946      1.802368
  H       2.887345      4.488485     -0.612062
  H       0.730414      4.926166      0.729081
  H       2.270396      2.540178     -1.976690
  H       0.022146      4.275102     -3.105349
  H       0.390816     -1.094475      3.140408
  H      -0.512585      2.546808      1.629324
  H       0.651728      3.488807      2.605793
  H      -0.032795      1.952548     -1.108181
  H      -2.502224      2.484987     -0.973244
  H      -2.021220      1.696335     -2.476289
  H      -2.356978      3.457732     -2.448455
  H       2.342678      2.335470      4.662430
  H       4.528843      0.886826      4.194270
  H       1.948647     -2.631426      3.820387
  H       0.649221      5.879085     -1.578484
  H       2.546595      4.992979     -3.281038
  H      -0.492771      2.335208     -4.175102
  H      -4.636904     -2.895555     -1.275749
  H       1.505958     -0.781713     -0.400767
  H      -1.642461     -2.379682     -2.899175
  H      -5.908553     -3.924432      2.715509
  H      -0.492407     -1.423929     -4.890771
  H      -4.347412     -3.837784      4.287850
  H      -7.255009     -3.918315      0.875494
  H       3.102456      0.530244     -3.231832
  H       1.574951      1.004215     -4.701869
73
Coordinates from ORCA-job Rutin E -2249.169847446022
  O       0.797565      0.289941      1.650904
  O       1.321650      2.948343      0.690390
  O      -0.390624      3.947025     -0.583835
  O       2.834925      2.475256      3.811770
  O       4.257903      0.006274      3.871705
  O       0.766424     -1.966893      1.308741
  O       2.684654     -2.385109      3.362280
  O       1.667043      5.831294     -1.482179
  O       2.748840      4.070516     -3.286150
  O       0.454745      2.449934     -3.856366
  O      -2.249049     -2.449442     -0.628294
  O      -0.963342     -2.913996      3.209008
  O      -3.509017     -3.628401      3.848369
  O      -6.661149     -3.740824      0.218689
  O       2.863670      0.179563     -2.313996
  O       1.682667      0.077234     -4.811034
  C       1.022299      1.387868      2.527944
  C       2.500357      1.391604      2.939140
  C       2.873634      0.054969      3.599609
  C       2.485061     -1.142978      2.718599
  C       1.922394      4.487423     -1.049782
  C       0.891375      4.099443      0.016775
  C       1.902911      3.553137     -2.277396
  C       0.456501      3.372049     -2.762941
  C       1.027918     -0.976676      2.268821
  C       0.545882      2.665940      1.855529
  C      -0.425787      2.907659     -1.588925
  C      -1.887992      2.679939     -1.951260
  C      -0.548129     -2.218656      0.995548
  C      -0.964666     -2.096170     -0.299524
  C      -1.408842     -2.738272      2.070367
  C      -2.793542     -3.017778      1.657737
  C      -0.211668     -1.637310     -1.481865
  C      -3.154272     -2.854480      0.305443
  C      -3.816325     -3.459184      2.540641
  C      -4.439426     -3.086278     -0.183917
  C       1.028273     -0.983679     -1.356807
  C      -0.773604     -1.783203     -2.768108
  C      -5.105651     -3.702629      2.068537
  C      -5.413145     -3.515527      0.711354
  C       1.664319     -0.459480     -2.475000
  C      -0.137827     -1.240519     -3.884453
  C       1.065710     -0.550023     -3.745444
  H       0.400514      1.268722      3.437970
  H       3.111129      1.539962      2.043326
  H       2.292811     -0.022946      4.543763
  H       3.135660     -1.142352      1.836115
  H       2.925219      4.496966     -0.615346
  H       0.762489      4.934287      0.720019
  H       2.298525      2.570969     -2.001191
  H       0.071306      4.341498     -3.120942
  H       0.347616     -1.085881      3.125612
  H      -0.510946      2.553436      1.585470
  H       0.644409      3.494634      2.571903
  H      -0.009195      1.986108     -1.164666
  H      -2.472714      2.548719     -1.035528
  H      -2.001782      1.765177     -2.545085
  H      -2.310213      3.531083     -2.500062
  H       2.329920      2.358502      4.635446
  H       4.496191      0.889877      4.202210
  H       1.871502     -2.623540      3.838573
  H       0.702884      5.917979     -1.580820
  H       2.610084      5.035230     -3.272971
  H      -0.457959      2.362486     -4.173103
  H      -4.668624     -2.942840     -1.232630
  H       1.500074     -0.847586     -0.400093
  H      -1.716050     -2.301097     -2.890936
  H      -5.878255     -4.036898      2.760137
  H      -0.575229     -1.329773     -4.874976
  H      -4.301529     -3.937028      4.317198
  H      -7.244451     -4.035860      0.935652
  H       3.204583      0.376234     -3.205866
  H       1.565067      1.039926     -4.654206
73
Coordinates from ORCA-job Rutin E -2249.170848538074
  O       0.796744      0.275191      1.632749
  O       1.322636      2.918721      0.654419
  O      -0.360101      3.949772     -0.630318
  O       2.781174      2.488260      3.810706
  O       4.196011      0.018911      3.952519
  O       0.777810     -1.978425      1.310124
  O       2.622995     -2.379538      3.439838
  O       1.742803      5.820076     -1.476345
  O       2.826164      4.056994     -3.283719
  O       0.505757      2.508960     -3.917608
  O      -2.259050     -2.448235     -0.596178
  O      -0.909342     -2.990807      3.207501
  O      -3.442188     -3.729548      3.874748
  O      -6.651164     -3.775183      0.295491
  O       2.853341      0.164389     -2.341751
  O       1.602255      0.167857     -4.791679
  C       0.998846      1.379202      2.503841
  C       2.467059      1.389073      2.949489
  C       2.819383      0.063479      3.643363
  C       2.454999     -1.146608      2.768254
  C       1.969935      4.466576     -1.057666
  C       0.916814      4.081524     -0.011109
  C       1.951703      3.546475     -2.295503
  C       0.510933      3.406465     -2.805390
  C       1.014824     -0.982447      2.269211
  C       0.528118      2.645725      1.807781
  C      -0.391768      2.928426     -1.654665
  C      -1.846525      2.716528     -2.049921
  C      -0.534911     -2.243134      1.002528
  C      -0.970348     -2.096998     -0.283750
  C      -1.375998     -2.789134      2.081019
  C      -2.765305     -3.066808      1.685992
  C      -0.235592     -1.613251     -1.468313
  C      -3.147707     -2.874791      0.343380
  C      -3.770518     -3.533409      2.575224
  C      -4.439353     -3.100902     -0.129375
  C       1.024159     -0.990931     -1.360550
  C      -0.832106     -1.711945     -2.744320
  C      -5.065795     -3.772245      2.118802
  C      -5.396061     -3.555578      0.772464
  C       1.639993     -0.450831     -2.481781
  C      -0.215941     -1.148800     -3.860731
  C       1.000300     -0.482948     -3.732824
  H       0.357317      1.266892      3.400663
  H       3.099720      1.518050      2.066012
  H       2.213999      0.000750      4.572523
  H       3.136157     -1.160803      1.908612
  H       2.966049      4.453265     -0.609310
  H       0.792600      4.910523      0.699672
  H       2.321591      2.552912     -2.022823
  H       0.148275      4.390471     -3.147312
  H       0.310393     -1.086757      3.105655
  H      -0.523209      2.525053      1.520227
  H       0.608314      3.482647      2.516210
  H       0.011840      1.995733     -1.241869
  H      -2.447655      2.553897     -1.149862
  H      -1.950232      1.824267     -2.680944
  H      -2.256505      3.588496     -2.575233
  H       2.260157      2.384627      4.625961
  H       4.424813      0.908012      4.275316
  H       1.770998     -2.640379      3.828861
  H       0.781322      5.927858     -1.578987
  H       2.707197      5.024477     -3.259085
  H      -0.401592      2.456600     -4.255011
  H      -4.687378     -2.935038     -1.170512
  H       1.525895     -0.892300     -0.413838
  H      -1.788005     -2.207903     -2.857592
  H      -5.825743     -4.124912      2.815282
  H      -0.683081     -1.199741     -4.840132
  H      -4.224003     -4.058277      4.347755
  H      -7.220567     -4.090927      1.014781
  H       3.146542      0.409273     -3.239776
  H       1.445510      1.127023     -4.635591
73
Coordinates from ORCA-job Rutin E -2249.172409245687
  O       0.812001      0.307418      1.611872
  O       1.375213      2.925177      0.614250
  O      -0.277777      4.028204     -0.647515
  O       2.789689      2.515623      3.796877
  O       4.107588      0.006635      4.068541
  O       0.761239     -1.952768      1.329553
  O       2.460541     -2.353503      3.566074
  O       1.896148      5.807320     -1.515711
  O       2.862000      4.005587     -3.351026
  O       0.477799      2.541452     -3.941518
  O      -2.271505     -2.455558     -0.572234
  O      -0.883915     -3.019487      3.216508
  O      -3.383283     -3.878094      3.873008
  O      -6.615549     -3.925901      0.312412
  O       2.852724      0.105820     -2.381268
  O       1.558158      0.177871     -4.792499
  C       1.004294      1.417862      2.478589
  C       2.460204      1.400973      2.961964
  C       2.745549      0.086192      3.706656
  C       2.376519     -1.136182      2.851752
  C       2.065801      4.442550     -1.108015
  C       1.012913      4.104089     -0.046701
  C       1.986387      3.528424     -2.348122
  C       0.531947      3.442716     -2.834329
  C       0.970556     -0.940819      2.278850
  C       0.564360      2.681022      1.761290
  C      -0.371307      3.006490     -1.666259
  C      -1.842164      2.855004     -2.031376
  C      -0.543333     -2.242517      1.015687
  C      -0.985897     -2.090000     -0.267359
  C      -1.360022     -2.833745      2.090436
  C      -2.742265     -3.143856      1.698361
  C      -0.270211     -1.585451     -1.455343
  C      -3.138564     -2.930767      0.362771
  C      -3.729066     -3.659615      2.582234
  C      -4.426063     -3.181874     -0.107773
  C       1.015086     -1.013794     -1.367901
  C      -0.906514     -1.631630     -2.713890
  C      -5.020204     -3.922433      2.127917
  C      -5.364526     -3.683128      0.788035
  C       1.616233     -0.465425     -2.492347
  C      -0.299016     -1.069860     -3.836050
  C       0.945138     -0.456456     -3.728286
  H       0.338202      1.321829      3.359258
  H       3.116119      1.482788      2.089487
  H       2.102028      0.071449      4.612029
  H       3.095146     -1.194833      2.024165
  H       3.067730      4.381697     -0.676528
  H       0.933450      4.938621      0.664422
  H       2.323825      2.520032     -2.083248
  H       0.201219      4.439438     -3.171372
  H       0.224135     -1.010754      3.081769
  H      -0.485725      2.573920      1.464249
  H       0.649961      3.526487      2.459302
  H       0.000249      2.059138     -1.256815
  H      -2.432450      2.718094     -1.119768
  H      -1.997938      1.967617     -2.658366
  H      -2.225427      3.743124     -2.549883
  H       2.252999      2.448235      4.605819
  H       4.353786      0.897939      4.371707
  H       1.560149     -2.644456      3.792370
  H       0.939654      5.963865     -1.600786
  H       2.783316      4.976982     -3.320563
  H      -0.438171      2.501425     -4.256695
  H      -4.683884     -2.999676     -1.143831
  H       1.545100     -0.960797     -0.431968
  H      -1.883129     -2.089896     -2.809139
  H      -5.765513     -4.314321      2.819294
  H      -0.791853     -1.086953     -4.803941
  H      -4.153117     -4.233472      4.346465
  H      -7.171243     -4.276945      1.026030
  H       3.113011      0.364520     -3.286386
  H       1.347162      1.135238     -4.689591
73
Coordinates from ORCA-job Rutin E -2249.174421327356
  O       0.835680      0.364246      1.584001
  O       1.454752      2.939594      0.568526
  O      -0.162701      4.141318     -0.644926
  O       2.798225      2.545470      3.807008
  O       3.977399     -0.009489      4.227279
  O       0.742206     -1.902139      1.341883
  O       2.221526     -2.303070      3.711211
  O       2.100408      5.746193     -1.622692
  O       2.845994      3.861586     -3.475438
  O       0.347176      2.544495     -3.933424
  O      -2.276915     -2.466920     -0.559554
  O      -0.844275     -3.053600      3.210283
  O      -3.301906     -4.043128      3.853359
  O      -6.555254     -4.114184      0.309762
  O       2.875282      0.011883     -2.418465
  O       1.555612      0.178964     -4.786121
  C       1.017514      1.477801      2.450424
  C       2.451352      1.420212      2.994141
  C       2.640285      0.118808      3.793164
  C       2.262238     -1.109763      2.953137
  C       2.184397      4.377347     -1.204668
  C       1.154131      4.132238     -0.097142
  C       1.986407      3.456998     -2.428068
  C       0.508138      3.461666     -2.850761
  C       0.911327     -0.870850      2.280174
  C       0.627191      2.740918      1.710697
  C      -0.372343      3.110730     -1.635501
  C      -1.866572      3.055079     -1.927984
  C      -0.549395     -2.231078      1.018692
  C      -0.999468     -2.074504     -0.260863
  C      -1.332719     -2.879738      2.086075
  C      -2.704243     -3.230203      1.696616
  C      -0.305797     -1.536997     -1.445800
  C      -3.116931     -2.996845      0.368477
  C      -3.667128     -3.803928      2.572366
  C      -4.396810     -3.282181     -0.101762
  C       1.012602     -1.042605     -1.378302
  C      -0.980135     -1.507161     -2.683840
  C      -4.950747     -4.100395      2.118056
  C      -5.311352     -3.839190      0.785720
  C       1.611075     -0.494002     -2.502168
  C      -0.368308     -0.954265     -3.808928
  C       0.913298     -0.422045     -3.719724
  H       0.315096      1.404363      3.305007
  H       3.142453      1.445338      2.145078
  H       1.949319      0.160932      4.661978
  H       3.029948     -1.222201      2.174922
  H       3.196415      4.247124     -0.813552
  H       1.160853      4.981301      0.601686
  H       2.270774      2.431450     -2.161846
  H       0.231816      4.473069     -3.191848
  H       0.111477     -0.899530      3.032703
  H      -0.422916      2.663219      1.405416
  H       0.730737      3.594713      2.396811
  H      -0.045925      2.147986     -1.223064
  H      -2.423464      2.966094     -0.989707
  H      -2.110993      2.174911     -2.535864
  H      -2.211970      3.961619     -2.441312
  H       2.233477      2.522542      4.599239
  H       4.248594      0.880367      4.512770
  H       1.308498     -2.644015      3.706332
  H       1.155857      5.974241     -1.670992
  H       2.835155      4.836230     -3.453314
  H      -0.577898      2.561029     -4.222290
  H      -4.666263     -3.084662     -1.132006
  H       1.570050     -1.059062     -0.456017
  H      -1.983017     -1.908118     -2.762825
  H      -5.677435     -4.537323      2.802331
  H      -0.884699     -0.921685     -4.764166
  H      -4.055427     -4.434308      4.324862
  H      -7.093154     -4.506686      1.015383
  H       3.112248      0.273235     -3.330376
  H       1.314875      1.134460     -4.744654
73
Coordinates from ORCA-job Rutin E -2249.175925815993
  O       0.854863      0.389047      1.561727
  O       1.509325      2.930186      0.519389
  O      -0.065986      4.211086     -0.666196
  O       2.771312      2.571056      3.823508
  O       3.860966     -0.002300      4.359955
  O       0.733944     -1.879618      1.357590
  O       2.025405     -2.245408      3.845574
  O       2.264186      5.677498     -1.711758
  O       2.847632      3.742162     -3.569021
  O       0.267116      2.574923     -3.956340
  O      -2.280551     -2.478461     -0.540140
  O      -0.795749     -3.114859      3.202132
  O      -3.222172     -4.191704      3.840152
  O      -6.507159     -4.250282      0.324467
  O       2.883891     -0.061391     -2.453270
  O       1.515566      0.240218     -4.758574
  C       1.017801      1.511034      2.422445
  C       2.427199      1.434567      3.025715
  C       2.546087      0.149757      3.866490
  C       2.168919     -1.089374      3.043107
  C       2.276858      4.309251     -1.285140
  C       1.262166      4.132192     -0.150630
  C       1.993143      3.395366     -2.496454
  C       0.507654      3.484411     -2.882570
  C       0.868998     -0.829149      2.283937
  C       0.665063      2.767924      1.654980
  C      -0.356697      3.186848     -1.641189
  C      -1.860398      3.206683     -1.886999
  C      -0.547673     -2.236899      1.028175
  C      -1.009055     -2.068026     -0.246145
  C      -1.302377     -2.929780      2.086478
  C      -2.666688     -3.307971      1.701454
  C      -0.333443     -1.498630     -1.425228
  C      -3.097237     -3.050489      0.382630
  C      -3.606751     -3.928351      2.570200
  C      -4.373933     -3.354943     -0.083488
  C       1.012338     -1.077998     -1.384939
  C      -1.050267     -1.373251     -2.632917
  C      -4.887014     -4.244684      2.119232
  C      -5.266254     -3.957375      0.797037
  C       1.598599     -0.510605     -2.506263
  C      -0.447431     -0.808823     -3.757254
  C       0.866091     -0.357107     -3.694943
  H       0.281676      1.456735      3.250174
  H       3.150808      1.420934      2.204246
  H       1.822634      0.233642      4.704218
  H       2.976796     -1.247777      2.312535
  H       3.289451      4.120834     -0.919698
  H       1.331910      4.985978      0.539271
  H       2.224039      2.357206     -2.228883
  H       0.281229      4.509069     -3.219922
  H       0.026159     -0.826694      2.989892
  H      -0.382359      2.704759      1.337890
  H       0.772692      3.632886      2.326898
  H      -0.067524      2.210546     -1.232003
  H      -2.392874      3.151834     -0.932184
  H      -2.169440      2.336818     -2.480168
  H      -2.173619      4.126362     -2.397390
  H       2.179315      2.579150      4.595931
  H       4.145588      0.888137      4.630229
  H       1.167851     -2.665467      3.636355
  H       1.333861      5.961078     -1.738301
  H       2.897532      4.715740     -3.551633
  H      -0.662053      2.638615     -4.224437
  H      -4.657108     -3.138772     -1.106248
  H       1.598226     -1.169751     -0.484529
  H      -2.076534     -1.713474     -2.689890
  H      -5.596389     -4.717787      2.797480
  H      -0.994720     -0.709312     -4.690602
  H      -3.960438     -4.613205      4.309630
  H      -7.028174     -4.677296      1.022733
  H       3.090651      0.224942     -3.366076
  H       1.258225      1.191439     -4.736831
73
Coordinates from ORCA-job Rutin E -2249.177150927569
  O       0.840214      0.404451      1.566241
  O       1.540681      2.925343      0.489392
  O       0.007631      4.263172     -0.690928
  O       2.749320      2.599928      3.827016
  O       3.820040      0.025599      4.400983
  O       0.710623     -1.863378      1.380730
  O       1.925814     -2.170872      3.959689
  O       2.392900      5.620226     -1.774837
  O       2.867152      3.650298     -3.624608
  O       0.221005      2.634142     -3.990901
  O      -2.293359     -2.511144     -0.529646
  O      -0.786617     -3.171859      3.195273
  O      -3.189917     -4.296124      3.830355
  O      -6.477360     -4.393821      0.319563
  O       2.870587     -0.124922     -2.473175
  O       1.468214      0.298471     -4.720058
  C       1.010778      1.537324      2.412621
  C       2.409953      1.455511      3.038715
  C       2.507890      0.182935      3.899115
  C       2.116165     -1.066352      3.099708
  C       2.346975      4.255938     -1.336907
  C       1.337283      4.131510     -0.188433
  C       2.007225      3.350958     -2.541381
  C       0.524378      3.516605     -2.910218
  C       0.831814     -0.803414      2.305830
  C       0.687989      2.791434      1.624359
  C      -0.332205      3.247116     -1.658829
  C      -1.836587      3.315880     -1.884347
  C      -0.565922     -2.241365      1.043736
  C      -1.033518     -2.069937     -0.229360
  C      -1.305867     -2.964214      2.089236
  C      -2.660367     -3.370858      1.702608
  C      -0.371222     -1.474593     -1.400962
  C      -3.099033     -3.107804      0.387674
  C      -3.582429     -4.025797      2.564296
  C      -4.368379     -3.438413     -0.081148
  C       0.991865     -1.110362     -1.383169
  C      -1.116625     -1.267473     -2.581138
  C      -4.854843     -4.369181      2.110754
  C      -5.243471     -4.074985      0.793564
  C       1.571496     -0.528118     -2.502826
  C      -0.520003     -0.691015     -3.701862
  C       0.815518     -0.302741     -3.663098
  H       0.262325      1.506238      3.230870
  H       3.146787      1.425958      2.231434
  H       1.785573      0.288410      4.733719
  H       2.933769     -1.261895      2.386325
  H       3.353261      4.021506     -0.981255
  H       1.451042      4.986539      0.493874
  H       2.189279      2.305702     -2.271124
  H       0.344874      4.553761     -3.237118
  H      -0.026870     -0.793506      2.993966
  H      -0.359027      2.743335      1.303258
  H       0.805215      3.663031      2.285762
  H      -0.068534      2.261134     -1.254507
  H      -2.355101      3.289294     -0.920998
  H      -2.182122      2.449119     -2.462322
  H      -2.126472      4.239184     -2.401510
  H       2.146072      2.622074      4.590376
  H       4.113638      0.916847      4.658540
  H       1.133881     -2.665861      3.660392
  H       1.475723      5.944451     -1.794478
  H       2.968699      4.619960     -3.612319
  H      -0.709489      2.743761     -4.238253
  H      -4.658587     -3.218395     -1.101015
  H       1.598112     -1.267243     -0.505889
  H      -2.158494     -1.558606     -2.621189
  H      -5.551247     -4.867355      2.784316
  H      -1.089073     -0.533767     -4.614216
  H      -3.914690     -4.745429      4.294970
  H      -6.985978     -4.843279      1.012906
  H       3.059075      0.190253     -3.381497
  H       1.218271      1.250577     -4.691045
73
Coordinates from ORCA-job Rutin E -2249.177796197826
  O       0.808444      0.421544      1.568211
  O       1.545051      2.919280      0.473983
  O       0.052636      4.293926     -0.711284
  O       2.720094      2.617295      3.823574
  O       3.785386      0.039671      4.402668
  O       0.687413     -1.837408      1.372484
  O       1.858225     -2.127648      4.002762
  O       2.485115      5.600461     -1.769871
  O       2.920398      3.629859     -3.628077
  O       0.242956      2.712942     -4.032712
  O      -2.314826     -2.543160     -0.516812
  O      -0.768294     -3.200271      3.190240
  O      -3.149090     -4.360818      3.842606
  O      -6.460419     -4.502898      0.357768
  O       2.855210     -0.203888     -2.495314
  O       1.437023      0.318914     -4.697530
  C       0.986967      1.556739      2.406513
  C       2.381776      1.469798      3.038835
  C       2.472674      0.201788      3.904038
  C       2.069999     -1.050913      3.115759
  C       2.398009      4.235081     -1.340814
  C       1.376213      4.131187     -0.199961
  C       2.043082      3.347887     -2.554939
  C       0.568434      3.561462     -2.930800
  C       0.793019     -0.785875      2.308271
  C       0.683255      2.806595      1.604333
  C      -0.299231      3.290997     -1.689985
  C      -1.799659      3.380658     -1.929438
  C      -0.582396     -2.246445      1.046674
  C      -1.061981     -2.078758     -0.221302
  C      -1.302043     -2.986667      2.092810
  C      -2.651851     -3.417057      1.714329
  C      -0.412995     -1.459372     -1.387972
  C      -3.105861     -3.156097      0.404142
  C      -3.554650     -4.092823      2.579818
  C      -4.372363     -3.507161     -0.056597
  C       0.960761     -1.139879     -1.385542
  C      -1.173803     -1.196314     -2.548060
  C      -4.823997     -4.456676      2.134526
  C      -5.228586     -4.163552      0.822782
  C       1.542006     -0.554891     -2.503551
  C      -0.577271     -0.613915     -3.665400
  C       0.772804     -0.276368     -3.643446
  H       0.234258      1.540623      3.220894
  H       3.124031      1.433631      2.236362
  H       1.753545      0.313795      4.739954
  H       2.887261     -1.265671      2.407141
  H       3.393768      3.969208     -0.978718
  H       1.507178      4.980486      0.485954
  H       2.194959      2.296346     -2.290719
  H       0.418765      4.609074     -3.239566
  H      -0.073767     -0.786038      2.985578
  H      -0.362624      2.765872      1.277564
  H       0.805524      3.683214      2.257128
  H      -0.052202      2.297113     -1.294250
  H      -2.324054      3.357272     -0.969187
  H      -2.150740      2.518951     -2.513783
  H      -2.074720      4.309899     -2.444180
  H       2.116460      2.642415      4.586525
  H       4.081347      0.929787      4.661533
  H       1.139373     -2.687916      3.642855
  H       1.577640      5.950200     -1.795262
  H       3.050084      4.596182     -3.608583
  H      -0.690514      2.840461     -4.258532
  H      -4.675049     -3.288113     -1.073048
  H       1.576973     -1.341771     -0.524421
  H      -2.225310     -1.453064     -2.577004
  H      -5.506281     -4.969136      2.811840
  H      -1.156419     -0.417360     -4.563626
  H      -3.861719     -4.826160      4.310232
  H      -6.955005     -4.964181      1.053454
  H       3.022091      0.158283     -3.391417
  H       1.153212      1.263267     -4.706835
73
Coordinates from ORCA-job Rutin E -2249.178407507802
  O       0.768072      0.422707      1.585402
  O       1.523896      2.912918      0.467776
  O       0.073053      4.323631     -0.735123
  O       2.702794      2.644178      3.798452
  O       3.805475      0.073805      4.356248
  O       0.669484     -1.838473      1.395935
  O       1.856975     -2.077305      4.050103
  O       2.549417      5.577318     -1.757576
  O       2.971731      3.599324     -3.609640
  O       0.279172      2.748435     -4.061911
  O      -2.320484     -2.577863     -0.505990
  O      -0.771357     -3.246446      3.195316
  O      -3.143411     -4.418927      3.845153
  O      -6.451792     -4.579399      0.359207
  O       2.847051     -0.276828     -2.520139
  O       1.383705      0.362766     -4.667876
  C       0.959781      1.567323      2.408799
  C       2.363586      1.491213      3.021477
  C       2.480676      0.229054      3.887655
  C       2.059269     -1.032760      3.126038
  C       2.424718      4.213839     -1.331116
  C       1.384634      4.129966     -0.205247
  C       2.070259      3.336335     -2.553030
  C       0.606742      3.584019     -2.950267
  C       0.768539     -0.783634      2.331727
  C       0.659095      2.813472      1.597550
  C      -0.286926      3.332771     -1.723926
  C      -1.779639      3.460602     -1.990596
  C      -0.593626     -2.265056      1.064371
  C      -1.073603     -2.098167     -0.203964
  C      -1.305986     -3.024755      2.100935
  C      -2.653031     -3.463445      1.720054
  C      -0.432775     -1.464909     -1.368071
  C      -3.109605     -3.201430      0.411579
  C      -3.550149     -4.150070      2.583002
  C      -4.372407     -3.563818     -0.051687
  C       0.949949     -1.190871     -1.391328
  C      -1.214999     -1.140128     -2.497480
  C      -4.816293     -4.523398      2.136187
  C      -5.223062     -4.230344      0.825464
  C       1.521890     -0.587930     -2.506097
  C      -0.631680     -0.538034     -3.610296
  C       0.730156     -0.247853     -3.616843
  H       0.216913      1.562518      3.232180
  H       3.096776      1.460173      2.210741
  H       1.780985      0.342461      4.739974
  H       2.858586     -1.267630      2.403616
  H       3.408075      3.924843     -0.952797
  H       1.526038      4.974636      0.484185
  H       2.194064      2.281376     -2.287693
  H       0.486847      4.635987     -3.257462
  H      -0.092492     -0.795961      3.015601
  H      -0.387228      2.777027      1.271259
  H       0.789336      3.692762      2.244733
  H      -0.072695      2.332140     -1.326858
  H      -2.320649      3.447768     -1.039310
  H      -2.138469      2.608823     -2.583090
  H      -2.024590      4.397663     -2.506292
  H       2.110414      2.665740      4.570370
  H       4.102365      0.965329      4.609024
  H       1.171973     -2.676337      3.689980
  H       1.650395      5.946243     -1.802256
  H       3.123717      4.562282     -3.587687
  H      -0.650443      2.895760     -4.292301
  H      -4.676969     -3.344507     -1.067545
  H       1.580844     -1.434564     -0.550445
  H      -2.275374     -1.360780     -2.504196
  H      -5.494298     -5.043164      2.812263
  H      -1.229274     -0.291549     -4.483935
  H      -3.852586     -4.891559      4.310807
  H      -6.942825     -5.045884      1.053934
  H       3.009988      0.102044     -3.408929
  H       1.106981      1.308426     -4.662495
73
Coordinates from ORCA-job Rutin E -2249.178876810503
  O       0.748989      0.440877      1.584717
  O       1.534995      2.925548      0.461850
  O       0.114108      4.374103     -0.735785
  O       2.721558      2.653879      3.773325
  O       3.792467      0.071288      4.346709
  O       0.642310     -1.825367      1.411086
  O       1.799513     -2.051752      4.071148
  O       2.618518      5.568084     -1.761260
  O       2.984775      3.589237     -3.621963
  O       0.271109      2.787428     -4.061557
  O      -2.324289     -2.621753     -0.505162
  O      -0.784173     -3.240155      3.210339
  O      -3.140893     -4.446104      3.854631
  O      -6.426669     -4.686203      0.351039
  O       2.829999     -0.320906     -2.529116
  O       1.355507      0.344133     -4.664207
  C       0.955358      1.587248      2.402384
  C       2.362667      1.499395      3.006818
  C       2.468008      0.243983      3.883236
  C       2.022180     -1.018191      3.137530
  C       2.460180      4.207011     -1.338525
  C       1.421060      4.146927     -0.210020
  C       2.083098      3.340421     -2.562841
  C       0.622027      3.618234     -2.952875
  C       0.736498     -0.762186      2.337555
  C       0.667989      2.836593      1.590876
  C      -0.274615      3.393174     -1.722029
  C      -1.764375      3.564368     -1.982837
  C      -0.613094     -2.267618      1.073958
  C      -1.087250     -2.118820     -0.198430
  C      -1.315218     -3.038440      2.110421
  C      -2.654246     -3.498047      1.725346
  C      -0.452479     -1.485485     -1.365017
  C      -3.107874     -3.252533      0.412705
  C      -3.545618     -4.192237      2.588784
  C      -4.361771     -3.640053     -0.055100
  C       0.932582     -1.227315     -1.398696
  C      -1.241103     -1.144923     -2.483457
  C      -4.803026     -4.589402      2.137729
  C      -5.206648     -4.313383      0.822047
  C       1.501645     -0.620841     -2.511252
  C      -0.660724     -0.540177     -3.597186
  C       0.704507     -0.265131     -3.613437
  H       0.216730      1.593584      3.229508
  H       3.090415      1.452212      2.191701
  H       1.772652      0.375471      4.737248
  H       2.814600     -1.278723      2.416559
  H       3.436930      3.894126     -0.961682
  H       1.583592      4.987289      0.480262
  H       2.188132      2.281337     -2.301319
  H       0.525031      4.672455     -3.260425
  H      -0.127703     -0.765203      3.016585
  H      -0.378192      2.816171      1.263116
  H       0.812576      3.712478      2.239846
  H      -0.087701      2.388086     -1.323055
  H      -2.303735      3.565446     -1.030415
  H      -2.147894      2.724976     -2.575229
  H      -1.984292      4.508767     -2.496367
  H       2.133969      2.688315      4.548443
  H       4.103848      0.959360      4.593885
  H       1.094118     -2.633139      3.721370
  H       1.729571      5.960812     -1.804024
  H       3.156575      4.548592     -3.597136
  H      -0.657233      2.951059     -4.287075
  H      -4.663869     -3.433633     -1.074379
  H       1.567526     -1.479475     -0.563742
  H      -2.304062     -1.354405     -2.480703
  H      -5.476232     -5.115250      2.813984
  H      -1.263048     -0.281074     -4.464022
  H      -3.845950     -4.924984      4.320123
  H      -6.914465     -5.154503      1.046816
  H       2.996603      0.059294     -3.415371
  H       1.079630      1.289553     -4.662377
73
Coordinates from ORCA-job Rutin E -2249.179367647208
  O       0.729681      0.435196      1.582873
  O       1.502712      2.898658      0.448654
  O       0.139594      4.409518     -0.738210
  O       2.670172      2.677015      3.774144
  O       3.779410      0.102621      4.344916
  O       0.656169     -1.832191      1.411343
  O       1.796412     -2.038897      4.079307
  O       2.685386      5.494987     -1.774675
  O       2.964979      3.502753     -3.632672
  O       0.221987      2.777157     -4.049957
  O      -2.305956     -2.642298     -0.508370
  O      -0.761317     -3.257864      3.211151
  O      -3.114675     -4.468715      3.853783
  O      -6.406394     -4.706087      0.354316
  O       2.855194     -0.391919     -2.546431
  O       1.366403      0.372401     -4.633248
  C       0.922445      1.585476      2.397010
  C       2.330182      1.516888      3.006553
  C       2.452141      0.263208      3.883606
  C       2.015710     -1.004286      3.143060
  C       2.473584      4.142812     -1.348725
  C       1.436512      4.125573     -0.218311
  C       2.060027      3.287771     -2.569543
  C       0.608647      3.615394     -2.957210
  C       0.730582     -0.765666      2.335494
  C       0.629508      2.826472      1.573970
  C      -0.298427      3.449940     -1.722393
  C      -1.776822      3.708133     -1.983941
  C      -0.592191     -2.287673      1.072153
  C      -1.069792     -2.140153     -0.198174
  C      -1.290555     -3.061761      2.109507
  C      -2.629952     -3.522438      1.723175
  C      -0.438043     -1.497215     -1.360871
  C      -3.085584     -3.275741      0.411317
  C      -3.520404     -4.215846      2.588379
  C      -4.340852     -3.662699     -0.053490
  C       0.951863     -1.273757     -1.406249
  C      -1.235906     -1.107026     -2.453214
  C      -4.779594     -4.612017      2.139755
  C      -5.185114     -4.335081      0.824151
  C       1.519579     -0.651429     -2.510543
  C      -0.658010     -0.483349     -3.558790
  C       0.714038     -0.245787     -3.589783
  H       0.181714      1.590451      3.222167
  H       3.061916      1.482106      2.195074
  H       1.756753      0.386738      4.738986
  H       2.806953     -1.263836      2.420860
  H       3.438645      3.792934     -0.973762
  H       1.634545      4.956818      0.473942
  H       2.127564      2.225217     -2.306520
  H       0.553967      4.666695     -3.283350
  H      -0.138364     -0.778155      3.009182
  H      -0.414893      2.802931      1.241171
  H       0.773603      3.708953      2.214334
  H      -0.171593      2.437485     -1.318664
  H      -2.320861      3.727434     -1.034360
  H      -2.204420      2.901320     -2.590101
  H      -1.940808      4.670648     -2.484450
  H       2.081213      2.700330      4.548545
  H       4.079280      0.992193      4.600418
  H       1.118388     -2.644410      3.713057
  H       1.813559      5.925160     -1.811806
  H       3.175281      4.454325     -3.607017
  H      -0.690617      2.990301     -4.297444
  H      -4.644305     -3.455512     -1.072258
  H       1.590203     -1.554545     -0.581471
  H      -2.304232     -1.287698     -2.434126
  H      -5.451948     -5.137450      2.817179
  H      -1.266927     -0.183254     -4.407688
  H      -3.820631     -4.944930      4.320495
  H      -6.893634     -5.174193      1.050582
  H       3.015363      0.023869     -3.416583
  H       1.066663      1.309893     -4.654612
73
Coordinates from ORCA-job Rutin E -2249.179615961355
  O       0.712173      0.409659      1.572555
  O       1.469706      2.856760      0.415753
  O       0.164029      4.425887     -0.752223
  O       2.600103      2.699602      3.761235
  O       3.758795      0.144849      4.348074
  O       0.673511     -1.857085      1.412629
  O       1.816670     -2.035998      4.082908
  O       2.744178      5.438102     -1.774352
  O       2.970338      3.452294     -3.643398
  O       0.208648      2.794130     -4.065778
  O      -2.302481     -2.649917     -0.493044
  O      -0.729892     -3.312974      3.210675
  O      -3.078476     -4.530643      3.854062
  O      -6.401957     -4.709627      0.381425
  O       2.862710     -0.441310     -2.551521
  O       1.361311      0.422849     -4.581869
  C       0.885648      1.567870      2.376483
  C       2.290137      1.527901      2.997474
  C       2.430555      0.281119      3.882139
  C       2.019403     -0.996739      3.146420
  C       2.491124      4.090380     -1.357535
  C       1.448791      4.094220     -0.232500
  C       2.057196      3.255088     -2.584075
  C       0.618074      3.626343     -2.975992
  C       0.733326     -0.785659      2.330843
  C       0.585048      2.794254      1.533039
  C      -0.302736      3.493248     -1.747920
  C      -1.765482      3.816428     -2.023576
  C      -0.573894     -2.318759      1.079600
  C      -1.063670     -2.154808     -0.182254
  C      -1.266200     -3.102511      2.115591
  C      -2.608949     -3.557685      1.731308
  C      -0.436078     -1.489807     -1.335325
  C      -3.074967     -3.292101      0.426709
  C      -3.493548     -4.259881      2.595159
  C      -4.336131     -3.668329     -0.030567
  C       0.958134     -1.302269     -1.398112
  C      -1.243063     -1.044295     -2.397986
  C      -4.758393     -4.646161      2.153151
  C      -5.174832     -4.349616      0.845240
  C       1.522292     -0.661624     -2.494061
  C      -0.668529     -0.401256     -3.494764
  C       0.708785     -0.201133     -3.544482
  H       0.140163      1.573818      3.197348
  H       3.029619      1.504008      2.193094
  H       1.730212      0.395519      4.734673
  H       2.815424     -1.248302      2.427310
  H       3.443934      3.709912     -0.981231
  H       1.671225      4.908192      0.472631
  H       2.094127      2.190294     -2.327496
  H       0.598520      4.677059     -3.307654
  H      -0.138336     -0.806683      3.001642
  H      -0.455097      2.754064      1.188604
  H       0.713410      3.687327      2.161585
  H      -0.224393      2.473422     -1.350180
  H      -2.325456      3.833633     -1.083412
  H      -2.213077      3.043093     -2.659258
  H      -1.881319      4.796923     -2.501900
  H       2.006515      2.712577      4.532278
  H       4.039253      1.038388      4.611415
  H       1.145214     -2.649588      3.718012
  H       1.887021      5.897352     -1.803578
  H       3.210451      4.396618     -3.607158
  H      -0.683301      3.054310     -4.341337
  H      -4.648323     -3.446438     -1.043649
  H       1.603191     -1.623964     -0.593222
  H      -2.315061     -1.199072     -2.362833
  H      -5.426208     -5.178207      2.829848
  H      -1.284283     -0.058690     -4.322070
  H      -3.781639     -5.012482      4.319135
  H      -6.884150     -5.185748      1.075768
  H       3.014843      0.022595     -3.398635
  H       1.041816      1.353169     -4.625269
73
Coordinates from ORCA-job Rutin E -2249.180063751232
  O       0.696747      0.404753      1.566997
  O       1.460743      2.848866      0.403795
  O       0.195552      4.458396     -0.757101
  O       2.567898      2.710864      3.754032
  O       3.741686      0.162907      4.347585
  O       0.669480     -1.864215      1.417329
  O       1.814187     -2.027816      4.086441
  O       2.797801      5.412546     -1.769577
  O       2.986769      3.427709     -3.643011
  O       0.208583      2.831321     -4.072656
  O      -2.304757     -2.677770     -0.486017
  O      -0.727965     -3.315481      3.221215
  O      -3.063062     -4.554193      3.866169
  O      -6.386882     -4.770349      0.396200
  O       2.846410     -0.465588     -2.565189
  O       1.334564      0.426877     -4.572582
  C       0.865352      1.567062      2.365965
  C       2.267791      1.535072      2.992351
  C       2.413313      0.291557      3.880214
  C       2.010137     -0.989700      3.147310
  C       2.515129      4.069539     -1.356619
  C       1.469784      4.091829     -0.234605
  C       2.066473      3.247402     -2.586870
  C       0.637640      3.654005     -2.982847
  C       0.723120     -0.787957      2.329993
  C       0.569221      2.791022      1.516391
  C      -0.291949      3.544308     -1.759771
  C      -1.742234      3.912110     -2.043502
  C      -0.576013     -2.332639      1.084795
  C      -1.069371     -2.172989     -0.176227
  C      -1.264165     -3.114955      2.124341
  C      -2.602703     -3.582727      1.740677
  C      -0.448940     -1.500614     -1.329112
  C      -3.071766     -3.324161      0.435879
  C      -3.481158     -4.290058      2.606791
  C      -4.330201     -3.712299     -0.019575
  C       0.946040     -1.324116     -1.403306
  C      -1.262795     -1.036653     -2.378199
  C      -4.742870     -4.688223      2.166650
  C      -5.162571     -4.398654      0.858338
  C       1.505300     -0.676796     -2.497952
  C      -0.693425     -0.387010     -3.473837
  C       0.685391     -0.198973     -3.535599
  H       0.117006      1.575505      3.184360
  H       3.010063      1.513663      2.190754
  H       1.711034      0.404048      4.731477
  H       2.807427     -1.238969      2.428679
  H       3.458328      3.667704     -0.978367
  H       1.708918      4.895044      0.477356
  H       2.078624      2.181690     -2.332974
  H       0.646765      4.704676     -3.315250
  H      -0.149179     -0.810602      3.000523
  H      -0.468792      2.751057      1.165541
  H       0.694984      3.685500      2.143156
  H      -0.245818      2.520651     -1.366800
  H      -2.310394      3.934997     -1.108479
  H      -2.205356      3.159193     -2.692322
  H      -1.824525      4.900350     -2.512587
  H       1.971673      2.721787      4.523093
  H       4.016031      1.057042      4.615079
  H       1.147317     -2.647570      3.722688
  H       1.950998      5.890615     -1.797846
  H       3.249764      4.365721     -3.600938
  H      -0.666929      3.126595     -4.364573
  H      -4.644670     -3.495720     -1.033091
  H       1.595862     -1.659508     -0.608034
  H      -2.335761     -1.182431     -2.333047
  H      -5.405662     -5.224089      2.845286
  H      -1.314387     -0.029040     -4.290563
  H      -3.762301     -5.040273      4.332790
  H      -6.864575     -5.248507      1.092260
  H       2.996403      0.009696     -3.406264
  H       1.000571      1.350865     -4.631612
73
Coordinates from ORCA-job Rutin E -2249.180608346303
  O       0.691472      0.394601      1.553703
  O       1.449067      2.841249      0.386984
  O       0.225217      4.500500     -0.754393
  O       2.524173      2.719356      3.751020
  O       3.717055      0.183869      4.357179
  O       0.676500     -1.877754      1.418310
  O       1.826757     -2.026622      4.076945
  O       2.833672      5.380693     -1.783972
  O       2.975156      3.371155     -3.642808
  O       0.178331      2.849703     -4.056448
  O      -2.298222     -2.703485     -0.479968
  O      -0.723317     -3.309006      3.232463
  O      -3.048864     -4.567726      3.877561
  O      -6.370177     -4.814597      0.407234
  O       2.850891     -0.514089     -2.579940
  O       1.332745      0.428701     -4.559997
  C       0.846202      1.561251      2.349596
  C       2.241966      1.539443      2.989489
  C       2.391537      0.297629      3.878815
  C       2.010511     -0.986862      3.140267
  C       2.527749      4.045885     -1.361346
  C       1.488897      4.091573     -0.235544
  C       2.052412      3.226918     -2.582593
  C       0.636231      3.675172     -2.981544
  C       0.723145     -0.794919      2.323288
  C       0.552790      2.782768      1.495522
  C      -0.297217      3.607145     -1.759340
  C      -1.730610      4.034875     -2.043441
  C      -0.569296     -2.350903      1.087352
  C      -1.064520     -2.193509     -0.173865
  C      -1.257612     -3.122363      2.131973
  C      -2.592767     -3.600403      1.749754
  C      -0.448508     -1.516830     -1.326445
  C      -3.063324     -3.349854      0.443841
  C      -3.468709     -4.309357      2.617648
  C      -4.319458     -3.745664     -0.011492
  C       0.948163     -1.360117     -1.413331
  C      -1.265906     -1.028315     -2.363033
  C      -4.727583     -4.716115      2.177910
  C      -5.148524     -4.433666      0.868533
  C       1.506853     -0.708043     -2.505337
  C      -0.697905     -0.373338     -3.455213
  C       0.683636     -0.205506     -3.529459
  H       0.090415      1.567476      3.161657
  H       2.991407      1.522943      2.193773
  H       1.680552      0.403452      4.723596
  H       2.815849     -1.221301      2.424771
  H       3.464299      3.625825     -0.986481
  H       1.751321      4.880757      0.483768
  H       2.031993      2.164860     -2.317269
  H       0.681518      4.720438     -3.328327
  H      -0.148837     -0.818675      2.994946
  H      -0.483290      2.737675      1.139026
  H       0.669709      3.678780      2.121025
  H      -0.291414      2.580953     -1.369846
  H      -2.300249      4.075875     -1.110109
  H      -2.223764      3.306207     -2.698472
  H      -1.767579      5.027209     -2.509508
  H       1.918558      2.728163      4.512903
  H       3.978577      1.079376      4.632526
  H       1.149960     -2.640783      3.723265
  H       1.995564      5.874130     -1.806103
  H       3.267297      4.300862     -3.605662
  H      -0.658405      3.202137     -4.393707
  H      -4.633705     -3.534408     -1.026160
  H       1.600404     -1.715635     -0.629608
  H      -2.340437     -1.157727     -2.309109
  H      -5.387435     -5.253958      2.857914
  H      -1.321828      0.010091     -4.257956
  H      -3.746271     -5.055151      4.345793
  H      -6.845508     -5.292523      1.105087
  H       3.006612     -0.035151     -3.417933
  H       0.991779      1.348559     -4.624079
73
Coordinates from ORCA-job Rutin E -2249.180947997577
  O       0.692230      0.386409      1.540939
  O       1.446844      2.833265      0.370707
  O       0.260072      4.533243     -0.756251
  O       2.490939      2.728566      3.746766
  O       3.684986      0.203013      4.380319
  O       0.677307     -1.889803      1.423241
  O       1.820563     -2.024054      4.078506
  O       2.877443      5.360910     -1.784943
  O       2.983902      3.340275     -3.643442
  O       0.179391      2.877001     -4.054659
  O      -2.300113     -2.723128     -0.468843
  O      -0.714217     -3.320532      3.239261
  O      -3.028068     -4.601730      3.886180
  O      -6.359031     -4.857184      0.425774
  O       2.833062     -0.520704     -2.597588
  O       1.298827      0.434627     -4.558610
  C       0.831943      1.558431      2.333608
  C       2.220487      1.544209      2.988161
  C       2.364721      0.306325      3.883960
  C       2.002309     -0.983338      3.143146
  C       2.550207      4.031116     -1.363503
  C       1.512852      4.089574     -0.237721
  C       2.057227      3.221613     -2.582355
  C       0.653440      3.701938     -2.986853
  C       0.719852     -0.798569      2.319498
  C       0.542975      2.776445      1.472921
  C      -0.284425      3.659921     -1.767268
  C      -1.703347      4.132186     -2.052604
  C      -0.568092     -2.367463      1.092651
  C      -1.066615     -2.210305     -0.167951
  C      -1.251175     -3.139604      2.138543
  C      -2.584280     -3.625834      1.760038
  C      -0.455839     -1.531906     -1.321643
  C      -3.059702     -3.375286      0.455939
  C      -3.453809     -4.341571      2.628621
  C      -4.315124     -3.776677      0.003203
  C       0.940516     -1.376730     -1.420924
  C      -1.281466     -1.038013     -2.350072
  C      -4.711627     -4.754134      2.191518
  C      -5.138067     -4.470877      0.884080
  C       1.489835     -0.717038     -2.513457
  C      -0.723234     -0.376893     -3.442649
  C       0.657510     -0.208238     -3.527843
  H       0.066324      1.563198      3.136464
  H       2.977792      1.525164      2.199545
  H       1.643501      0.412318      4.719610
  H       2.818075     -1.208285      2.436346
  H       3.480248      3.593982     -0.991742
  H       1.789742      4.865453      0.490354
  H       2.008627      2.161726     -2.312505
  H       0.725526      4.742756     -3.341533
  H      -0.153971     -0.817021      2.988368
  H      -0.490819      2.726419      1.109525
  H       0.651406      3.675114      2.095680
  H      -0.308881      2.631528     -1.384486
  H      -2.273850      4.185872     -1.120366
  H      -2.217871      3.424611     -2.713514
  H      -1.706945      5.127646     -2.513583
  H       1.876347      2.740554      4.501362
  H       3.938998      1.101101      4.654000
  H       1.140047     -2.635901      3.729061
  H       2.047065      5.867649     -1.799918
  H       3.296692      4.263403     -3.608871
  H      -0.623262      3.269324     -4.428797
  H      -4.632971     -3.564378     -1.010130
  H       1.599565     -1.737859     -0.645007
  H      -2.355716     -1.167101     -2.288659
  H      -5.366222     -5.298192      2.871622
  H      -1.354193      0.012971     -4.236669
  H      -3.720849     -5.094382      4.355785
  H      -6.829821     -5.339160      1.123918
  H       2.979485     -0.031159     -3.430971
  H       0.940421      1.347091     -4.627691
73
Coordinates from ORCA-job Rutin E -2249.181212397060
  O       0.680158      0.380946      1.535348
  O       1.427302      2.819673      0.355959
  O       0.288295      4.562660     -0.757220
  O       2.454641      2.742499      3.741357
  O       3.671512      0.229111      4.378097
  O       0.678159     -1.895599      1.423500
  O       1.834436     -2.016661      4.074490
  O       2.918008      5.318830     -1.791815
  O       2.971547      3.286970     -3.647661
  O       0.151827      2.893528     -4.047700
  O      -2.298278     -2.742464     -0.464796
  O      -0.710327     -3.327889      3.244793
  O      -3.014350     -4.624259      3.891071
  O      -6.346549     -4.896609      0.433563
  O       2.834258     -0.561719     -2.605609
  O       1.298241      0.448922     -4.534959
  C       0.810364      1.556957      2.324027
  C       2.197017      1.554952      2.983081
  C       2.351012      0.319253      3.879649
  C       2.001969     -0.974502      3.138600
  C       2.561070      3.997310     -1.368904
  C       1.527396      4.078718     -0.241270
  C       2.043852      3.198401     -2.584294
  C       0.653365      3.716202     -2.990080
  C       0.716009     -0.801908      2.317222
  C       0.520481      2.770169      1.456012
  C      -0.285429      3.710936     -1.770756
  C      -1.684634      4.236945     -2.058503
  C      -0.565689     -2.380390      1.095374
  C      -1.066732     -2.224747     -0.164229
  C      -1.246208     -3.152311      2.142613
  C      -2.576662     -3.646374      1.764429
  C      -0.458051     -1.542036     -1.315567
  C      -3.054466     -3.398309      0.460694
  C      -3.441982     -4.366334      2.633586
  C      -4.308235     -3.806063      0.008803
  C       0.939165     -1.403873     -1.423609
  C      -1.285324     -1.022957     -2.329984
  C      -4.698028     -4.785062      2.197468
  C      -5.126997     -4.504201      0.890481
  C       1.489077     -0.737799     -2.512001
  C      -0.727086     -0.352361     -3.416692
  C       0.655336     -0.201128     -3.510688
  H       0.041337      1.560967      3.123470
  H       2.957211      1.541731      2.197297
  H       1.627857      0.418597      4.714401
  H       2.819095     -1.189396      2.430596
  H       3.481477      3.537895     -0.999992
  H       1.825136      4.840615      0.493177
  H       1.965013      2.141423     -2.310317
  H       0.756098      4.750244     -3.356188
  H      -0.156031     -0.824590      2.988323
  H      -0.512537      2.716524      1.090336
  H       0.626506      3.672313      2.073774
  H      -0.347867      2.683302     -1.390459
  H      -2.255542      4.307153     -1.127608
  H      -2.222807      3.553963     -2.726196
  H      -1.648744      5.234619     -2.513299
  H       1.837124      2.750473      4.493572
  H       3.916103      1.129504      4.652672
  H       1.156433     -2.634219      3.729735
  H       2.099408      5.844672     -1.800138
  H       3.309683      4.201224     -3.617626
  H      -0.617368      3.322922     -4.450187
  H      -4.627670     -3.595312     -1.004350
  H       1.599383     -1.783096     -0.657065
  H      -2.360873     -1.138261     -2.261541
  H      -5.349372     -5.332294      2.878160
  H      -1.359060      0.059093     -4.198901
  H      -3.704428     -5.119954      4.361415
  H      -6.814534     -5.380146      1.132497
  H       2.981060     -0.052338     -3.426910
  H       0.934142      1.358846     -4.606927
73
Coordinates from ORCA-job Rutin E -2249.181436604369
  O       0.669028      0.375477      1.528862
  O       1.407314      2.799014      0.332720
  O       0.321112      4.586758     -0.760810
  O       2.421578      2.756318      3.731432
  O       3.643654      0.253100      4.390326
  O       0.678681     -1.899238      1.424111
  O       1.824785     -2.006877      4.080778
  O       2.960802      5.275849     -1.796685
  O       2.964481      3.236663     -3.655664
  O       0.131747      2.907790     -4.045289
  O      -2.299234     -2.754496     -0.454966
  O      -0.696003     -3.344604      3.248683
  O      -2.987622     -4.664035      3.894090
  O      -6.330173     -4.939040      0.446932
  O       2.828994     -0.603269     -2.625192
  O       1.283446      0.474557     -4.510910
  C       0.788595      1.556133      2.311904
  C       2.171780      1.563797      2.978247
  C       2.326293      0.333357      3.881922
  C       1.990260     -0.965737      3.143459
  C       2.575487      3.961460     -1.377582
  C       1.544925      4.061182     -0.249090
  C       2.035553      3.177134     -2.591278
  C       0.659318      3.730092     -2.998791
  C       0.707861     -0.803744      2.315237
  C       0.498967      2.761023      1.431646
  C      -0.280185      3.760725     -1.779941
  C      -1.656678      4.340622     -2.071233
  C      -0.562399     -2.392513      1.100320
  C      -1.068549     -2.233857     -0.156330
  C      -1.235136     -3.170394      2.147764
  C      -2.563459     -3.672053      1.771099
  C      -0.462648     -1.544945     -1.304793
  C      -3.047668     -3.420083      0.470113
  C      -3.421097     -4.401919      2.639460
  C      -4.300276     -3.833497      0.020458
  C       0.935055     -1.430488     -1.430603
  C      -1.294460     -0.991124     -2.296271
  C      -4.676054     -4.826100      2.205427
  C      -5.111471     -4.541180      0.901498
  C       1.481710     -0.754401     -2.514411
  C      -0.740229     -0.308653     -3.377752
  C       0.643218     -0.181299     -3.489423
  H       0.014401      1.561880      3.106072
  H       2.936186      1.548834      2.196668
  H       1.596440      0.431861      4.711050
  H       2.812554     -1.176588      2.440316
  H       3.485976      3.479241     -1.013097
  H       1.863352      4.805610      0.494477
  H       1.926428      2.123826     -2.314895
  H       0.790319      4.756222     -3.376935
  H      -0.167348     -0.829163      2.982281
  H      -0.533342      2.702101      1.064667
  H       0.602787      3.669280      2.040517
  H      -0.382124      2.734729     -1.403861
  H      -2.231911      4.420392     -1.143682
  H      -2.212409      3.687066     -2.753441
  H      -1.581027      5.342608     -2.511600
  H       1.800273      2.766461      4.480472
  H       3.881338      1.156950      4.659745
  H       1.151274     -2.628936      3.734973
  H       2.154393      5.820537     -1.795998
  H       3.326953      4.141629     -3.629940
  H      -0.595852      3.372939     -4.483587
  H      -4.624568     -3.619322     -0.990440
  H       1.599290     -1.835371     -0.679819
  H      -2.370993     -1.088194     -2.214113
  H      -5.321518     -5.381160      2.885407
  H      -1.376169      0.129668     -4.141907
  H      -3.672611     -5.167211      4.363897
  H      -6.792631     -5.428883      1.145146
  H       2.974451     -0.076045     -3.435435
  H       0.920486      1.385433     -4.580811
73
Coordinates from ORCA-job Rutin E -2249.181479569905
  O       0.658565      0.360310      1.519130
  O       1.373140      2.771051      0.301232
  O       0.346506      4.608263     -0.763100
  O       2.374018      2.772495      3.717500
  O       3.620263      0.289375      4.395727
  O       0.685877     -1.911599      1.420700
  O       1.843049     -2.001933      4.076286
  O       2.989233      5.242396     -1.789718
  O       2.961083      3.196859     -3.656620
  O       0.114259      2.908608     -4.037062
  O      -2.304971     -2.754458     -0.438967
  O      -0.675938     -3.376719      3.250447
  O      -2.957014     -4.716127      3.893712
  O      -6.322689     -4.959718      0.467038
  O       2.825862     -0.669193     -2.648351
  O       1.278272      0.492785     -4.481365
  C       0.760709      1.546955      2.295010
  C       2.140178      1.573983      2.968500
  C       2.305256      0.348803      3.877853
  C       1.992316     -0.957576      3.139922
  C       2.583637      3.931888     -1.379649
  C       1.551760      4.039414     -0.253810
  C       2.029043      3.161235     -2.593379
  C       0.665571      3.740242     -3.007495
  C       0.709133     -0.814524      2.310013
  C       0.462802      2.738318      1.398435
  C      -0.277445      3.810856     -1.791916
  C      -1.626062      4.446729     -2.093164
  C      -0.555788     -2.409451      1.107087
  C      -1.071611     -2.239650     -0.143231
  C      -1.220813     -3.195220      2.153402
  C      -2.550150     -3.697773      1.779500
  C      -0.466981     -1.543679     -1.286796
  C      -3.044467     -3.432186      0.484417
  C      -3.399384     -4.439972      2.645176
  C      -4.298697     -3.843945      0.038655
  C       0.930482     -1.463307     -1.434149
  C      -1.300311     -0.944767     -2.249665
  C      -4.656304     -4.862519      2.214758
  C      -5.101730     -4.563734      0.917355
  C       1.476609     -0.780700     -2.514170
  C      -0.747338     -0.251671     -3.325347
  C       0.637165     -0.161804     -3.460581
  H      -0.019197      1.551295      3.083171
  H       2.908763      1.563538      2.191155
  H       1.569219      0.439414      4.702406
  H       2.819660     -1.154547      2.439053
  H       3.486039      3.431712     -1.019152
  H       1.885659      4.759884      0.506142
  H       1.895114      2.111577     -2.315387
  H       0.820618      4.754242     -3.406741
  H      -0.165814     -0.845354      2.977156
  H      -0.567664      2.661377      1.029117
  H       0.553288      3.655583      1.995272
  H      -0.423374      2.788310     -1.421256
  H      -2.211261      4.535455     -1.172509
  H      -2.192959      3.825388     -2.795205
  H      -1.506731      5.452290     -2.515555
  H       1.748594      2.780580      4.463038
  H       3.845190      1.199478      4.655178
  H       1.169453     -2.627741      3.737069
  H       2.191241      5.799583     -1.778316
  H       3.341341      4.094471     -3.636282
  H      -0.547407      3.410144     -4.535635
  H      -4.630702     -3.618676     -0.967307
  H       1.596745     -1.900783     -0.702216
  H      -2.377804     -1.015485     -2.151040
  H      -5.295505     -5.427389      2.892580
  H      -1.385019      0.220450     -4.067514
  H      -3.636141     -5.229114      4.361279
  H      -6.778939     -5.458508      1.162975
  H       2.973828     -0.122820     -3.444946
  H       0.932371      1.411204     -4.544247
73
Coordinates from ORCA-job Rutin E -2249.181766800087
  O       0.643209      0.361203      1.511416
  O       1.366419      2.771124      0.292209
  O       0.380843      4.637174     -0.765792
  O       2.351220      2.781850      3.706717
  O       3.599429      0.303354      4.394334
  O       0.674386     -1.912894      1.422581
  O       1.828927     -1.992307      4.076553
  O       3.036295      5.227189     -1.774335
  O       2.985165      3.187389     -3.649858
  O       0.132650      2.949173     -4.044374
  O      -2.314957     -2.781146     -0.429971
  O      -0.671673     -3.382833      3.256610
  O      -2.936031     -4.745502      3.906378
  O      -6.308995     -5.025561      0.489924
  O       2.795069     -0.676617     -2.665270
  O       1.235109      0.490970     -4.483086
  C       0.742203      1.550824      2.283954
  C       2.120143      1.581057      2.960442
  C       2.285444      0.358916      3.873305
  C       1.976715     -0.949684      3.138045
  C       2.607358      3.921726     -1.372160
  C       1.570734      4.040753     -0.251788
  C       2.046536      3.165373     -2.591937
  C       0.696344      3.770601     -3.012676
  C       0.694170     -0.811507      2.306665
  C       0.449790      2.741890      1.384495
  C      -0.253040      3.859521     -1.803329
  C      -1.583194      4.528972     -2.113024
  C      -0.564066     -2.420252      1.110667
  C      -1.084650     -2.255811     -0.138271
  C      -1.220108     -3.209339      2.160008
  C      -2.545304     -3.725174      1.790071
  C      -0.487837     -1.555866     -1.283413
  C      -3.045727     -3.465536      0.496139
  C      -3.384734     -4.474813      2.658894
  C      -4.297327     -3.890347      0.054535
  C       0.908490     -1.475032     -1.440458
  C      -1.327927     -0.952855     -2.237690
  C      -4.638642     -4.910106      2.232603
  C      -5.090698     -4.617079      0.936287
  C       1.446844     -0.788372     -2.521751
  C      -0.782826     -0.255476     -3.314638
  C       0.600691     -0.165732     -3.459799
  H      -0.040386      1.556806      3.069404
  H       2.890198      1.569105      2.184526
  H       1.547399      0.450269      4.695998
  H       2.805462     -1.146279      2.438742
  H       3.499414      3.405261     -1.008843
  H       1.912654      4.748956      0.516033
  H       1.891767      2.117387     -2.318125
  H       0.873729      4.780893     -3.411674
  H      -0.180962     -0.841720      2.973637
  H      -0.578932      2.667464      1.009713
  H       0.540042      3.659061      1.981359
  H      -0.425818      2.838933     -1.438969
  H      -2.175906      4.624273     -1.197840
  H      -2.156193      3.927158     -2.826449
  H      -1.435762      5.534830     -2.525719
  H       1.724263      2.791369      4.450940
  H       3.822606      1.214736      4.650726
  H       1.156214     -2.619922      3.738847
  H       2.247584      5.797462     -1.763024
  H       3.381198      4.077988     -3.625082
  H      -0.499419      3.470303     -4.560898
  H      -4.634522     -3.669384     -0.950654
  H       1.580138     -1.915070     -0.714849
  H      -2.404742     -1.023780     -2.131523
  H      -5.270267     -5.480570      2.912845
  H      -1.425959      0.219788     -4.050024
  H      -3.608502     -5.265117      4.376235
  H      -6.758314     -5.528023      1.187724
  H       2.937555     -0.125155     -3.459282
  H       0.884712      1.407660     -4.547384
73
Coordinates from ORCA-job Rutin E -2249.182008982812
  O       0.626331      0.371905      1.513650
  O       1.360704      2.777808      0.296780
  O       0.415497      4.666636     -0.765242
  O       2.336271      2.790701      3.709781
  O       3.584709      0.312194      4.395355
  O       0.662797     -1.903755      1.424919
  O       1.811003     -1.979929      4.081075
  O       3.080247      5.196375     -1.770153
  O       2.993542      3.152327     -3.639858
  O       0.133761      2.979264     -4.039743
  O      -2.318218     -2.808592     -0.429272
  O      -0.672198     -3.369750      3.262340
  O      -2.920574     -4.752229      3.918535
  O      -6.285018     -5.098533      0.499627
  O       2.764376     -0.669765     -2.689543
  O       1.189863      0.484980     -4.501026
  C       0.727253      1.561721      2.286207
  C       2.104735      1.589996      2.963499
  C       2.270387      0.367663      3.875402
  C       1.960684     -0.939851      3.140362
  C       2.625837      3.900741     -1.364363
  C       1.590062      4.043856     -0.246275
  C       2.052354      3.152980     -2.583991
  C       0.718456      3.789283     -3.009942
  C       0.677982     -0.801508      2.308533
  C       0.442078      2.755829      1.387972
  C      -0.233843      3.906656     -1.805585
  C      -1.542706      4.614454     -2.123136
  C      -0.571495     -2.420318      1.110867
  C      -1.093734     -2.268302     -0.139985
  C      -1.220902     -3.209461      2.163919
  C      -2.539813     -3.741638      1.795953
  C      -0.506181     -1.568346     -1.291103
  C      -3.041745     -3.496662      0.500024
  C      -3.371347     -4.495668      2.668968
  C      -4.287503     -3.940379      0.059842
  C       0.889159     -1.480816     -1.454939
  C      -1.354540     -0.973515     -2.243137
  C      -4.619086     -4.949678      2.244159
  C      -5.072900     -4.671344      0.945241
  C       1.418257     -0.791313     -2.539385
  C      -0.818532     -0.275446     -3.324320
  C       0.563658     -0.177072     -3.475370
  H      -0.055706      1.569143      3.071555
  H       2.874419      1.579182      2.187376
  H       1.532592      0.458401      4.698408
  H       2.788758     -1.138065      2.440131
  H       3.506957      3.368101     -0.997633
  H       1.945185      4.745242      0.521824
  H       1.873267      2.109253     -2.308919
  H       0.922987      4.793322     -3.411854
  H      -0.197716     -0.833634      2.975115
  H      -0.586165      2.690501      1.010687
  H       0.538872      3.671383      1.986112
  H      -0.437773      2.891531     -1.441754
  H      -2.142403      4.721056     -1.213879
  H      -2.124772      4.032989     -2.846308
  H      -1.362275      5.617516     -2.529033
  H       1.708774      2.800402      4.453643
  H       3.807842      1.223700      4.651458
  H       1.147658     -2.614482      3.737370
  H       2.302680      5.781714     -1.762276
  H       3.409996      4.033556     -3.615447
  H      -0.458108      3.522833     -4.579483
  H      -4.625972     -3.730728     -0.947327
  H       1.566152     -1.916954     -0.732578
  H      -2.430311     -1.049061     -2.130170
  H      -5.244361     -5.523341      2.927586
  H      -1.467736      0.196904     -4.056318
  H      -3.587668     -5.276334      4.391154
  H      -6.728951     -5.602025      1.200153
  H       2.898337     -0.117904     -3.484930
  H       0.831472      1.398198     -4.565702
73
Coordinates from ORCA-job Rutin E -2249.182116374567
  O       0.612713      0.380205      1.512628
  O       1.355869      2.782567      0.293243
  O       0.436152      4.684247     -0.769381
  O       2.333352      2.795755      3.704459
  O       3.575205      0.315876      4.391106
  O       0.648176     -1.896111      1.424013
  O       1.795655     -1.971997      4.080863
  O       3.109413      5.187584     -1.760480
  O       3.012474      3.144715     -3.632927
  O       0.150881      3.003478     -4.047271
  O      -2.330138     -2.823534     -0.422900
  O      -0.670784     -3.375137      3.264311
  O      -2.905898     -4.775708      3.925006
  O      -6.273889     -5.151103      0.512763
  O       2.738844     -0.671311     -2.696704
  O       1.156958      0.481931     -4.504463
  C       0.718459      1.570568      2.283856
  C       2.096940      1.595218      2.959258
  C       2.260575      0.373526      3.872048
  C       1.946863     -0.933504      3.138604
  C       2.640856      3.895716     -1.358444
  C       1.600864      4.047542     -0.245312
  C       2.066056      3.154731     -2.581606
  C       0.741586      3.805866     -3.013884
  C       0.663636     -0.793606      2.307485
  C       0.437912      2.765704      1.385183
  C      -0.216556      3.935193     -1.815195
  C      -1.512866      4.662788     -2.140457
  C      -0.583191     -2.421576      1.113743
  C      -1.108891     -2.274516     -0.135753
  C      -1.223606     -3.217718      2.167637
  C      -2.538860     -3.760378      1.802197
  C      -0.526696     -1.570762     -1.287532
  C      -3.045586     -3.518972      0.507426
  C      -3.361495     -4.522711      2.676472
  C      -4.288145     -3.974207      0.069722
  C       0.867977     -1.480877     -1.454711
  C      -1.378643     -0.977952     -2.237476
  C      -4.605935     -4.987889      2.254070
  C      -5.064905     -4.712976      0.956254
  C       1.393201     -0.792010     -2.541350
  C      -0.846501     -0.279759     -3.320694
  C       0.535141     -0.179952     -3.475733
  H      -0.063611      1.581438      3.070023
  H       2.865593      1.581721      2.181830
  H       1.523682      0.466578      4.695573
  H       2.773354     -1.134873      2.437418
  H       3.515116      3.354393     -0.988094
  H       1.959753      4.743159      0.526165
  H       1.874632      2.112542     -2.308812
  H       0.959809      4.807252     -3.414769
  H      -0.211575     -0.825377      2.974584
  H      -0.590550      2.705363      1.007647
  H       0.539873      3.680931      1.982883
  H      -0.438008      2.922818     -1.453869
  H      -2.119164      4.773554     -1.236107
  H      -2.096187      4.093073     -2.871736
  H      -1.314627      5.665120     -2.539760
  H       1.707050      2.807932      4.449300
  H       3.801437      1.228021      4.642278
  H       1.134008     -2.607787      3.736313
  H       2.337800      5.780728     -1.754279
  H       3.438125      4.021409     -3.606854
  H      -0.415176      3.559981     -4.601334
  H      -4.630908     -3.767163     -0.936539
  H       1.547358     -1.917228     -0.734882
  H      -2.453962     -1.055600     -2.121804
  H      -5.224538     -5.567511      2.938539
  H      -1.498452      0.190646     -4.051475
  H      -3.566936     -5.306720      4.398430
  H      -6.711660     -5.659234      1.213817
  H       2.869512     -0.121150     -3.493932
  H       0.810779      1.400940     -4.555032
73
Coordinates from ORCA-job Rutin E -2249.182245758895
  O       0.597687      0.391192      1.514244
  O       1.347870      2.782201      0.289317
  O       0.470784      4.706464     -0.768479
  O       2.318275      2.806555      3.707146
  O       3.557604      0.328379      4.397541
  O       0.637103     -1.883830      1.421784
  O       1.780792     -1.960104      4.083652
  O       3.148231      5.153414     -1.761976
  O       3.013365      3.102713     -3.627707
  O       0.144359      3.014957     -4.036201
  O      -2.337426     -2.837607     -0.418405
  O      -0.664472     -3.377993      3.264433
  O      -2.884645     -4.797860      3.929520
  O      -6.251989     -5.212618      0.521191
  O       2.708860     -0.662357     -2.714892
  O       1.114293      0.480876     -4.517565
  C       0.704984      1.582089      2.283949
  C       2.082226      1.605727      2.962020
  C       2.244121      0.384493      3.875329
  C       1.932171     -0.922160      3.141031
  C       2.657644      3.870948     -1.356078
  C       1.620337      4.043347     -0.243738
  C       2.067782      3.136811     -2.575742
  C       0.757798      3.813443     -3.011696
  C       0.649460     -0.783136      2.307879
  C       0.429881      2.775661      1.381349
  C      -0.198827      3.975076     -1.815822
  C      -1.470843      4.741528     -2.148130
  C      -0.590862     -2.418912      1.115270
  C      -1.120691     -2.277997     -0.133243
  C      -1.221671     -3.222733      2.169751
  C      -2.532121     -3.777980      1.806330
  C      -0.546274     -1.570813     -1.287597
  C      -3.043240     -3.542071      0.512396
  C      -3.344691     -4.550160      2.681572
  C      -4.280860     -4.012184      0.076297
  C       0.847324     -1.476073     -1.460497
  C      -1.405003     -0.982953     -2.234279
  C      -4.584188     -5.029801      2.260798
  C      -5.047841     -4.760234      0.963482
  C       1.364856     -0.786839     -2.550963
  C      -0.880371     -0.284459     -3.321172
  C       0.499997     -0.179594     -3.482162
  H      -0.078182      1.596438      3.068988
  H       2.852221      1.592356      2.186000
  H       1.505381      0.477207      4.697234
  H       2.758937     -1.123325      2.440025
  H       3.522530      3.315138     -0.985216
  H       1.992880      4.729127      0.529979
  H       1.854622      2.100069     -2.298882
  H       0.998422      4.805431     -3.422410
  H      -0.226930     -0.817079      2.973358
  H      -0.598431      2.719209      1.002735
  H       0.536316      3.692721      1.975254
  H      -0.452542      2.970680     -1.453283
  H      -2.084820      4.861483     -1.250219
  H      -2.060343      4.195564     -2.892394
  H      -1.238507      5.740976     -2.536031
  H       1.690323      2.819833      4.450619
  H       3.783259      1.241820      4.644727
  H       1.123846     -2.599396      3.736206
  H       2.387506      5.760445     -1.752799
  H       3.457724      3.970155     -3.605626
  H      -0.363001      3.587950     -4.628690
  H      -4.627338     -3.809132     -0.929514
  H       1.531095     -1.910173     -0.743429
  H      -2.479429     -1.064827     -2.113271
  H      -5.195125     -5.616555      2.946070
  H      -1.537237      0.181955     -4.050063
  H      -3.539042     -5.336448      4.403650
  H      -6.682868     -5.726090      1.222631
  H       2.831926     -0.112233     -3.513711
  H       0.780714      1.405193     -4.556272
73
Coordinates from ORCA-job Rutin E -2249.182372581934
  O       0.581160      0.410089      1.520792
  O       1.344760      2.780860      0.282648
  O       0.516579      4.727494     -0.769774
  O       2.313230      2.819436      3.712458
  O       3.535053      0.338301      4.413483
  O       0.619119     -1.861622      1.421162
  O       1.754378     -1.944057      4.093093
  O       3.195336      5.101158     -1.780649
  O       3.000460      3.037004     -3.632364
  O       0.122071      3.021098     -4.020527
  O      -2.345309     -2.850952     -0.414168
  O      -0.665418     -3.371055      3.268287
  O      -2.865794     -4.819858      3.932697
  O      -6.216794     -5.298068      0.516428
  O       2.670829     -0.631910     -2.728184
  O       1.058878      0.494435     -4.528967
  C       0.696580      1.601474      2.287520
  C       2.072161      1.618250      2.969129
  C       2.224381      0.398022      3.884883
  C       1.910192     -0.907520      3.150063
  C       2.678062      3.832708     -1.364040
  C       1.649822      4.034461     -0.248284
  C       2.062613      3.105114     -2.574410
  C       0.769574      3.812879     -3.010037
  C       0.629771     -0.765029      2.312448
  C       0.431005      2.791779      1.378192
  C      -0.178015      4.014606     -1.813506
  C      -1.421739      4.824538     -2.149444
  C      -0.604750     -2.407623      1.120038
  C      -1.136538     -2.275466     -0.128852
  C      -1.224434     -3.221878      2.173763
  C      -2.526496     -3.795525      1.809393
  C      -0.571672     -1.562123     -1.285387
  C      -3.039347     -3.568879      0.514613
  C      -3.327463     -4.581430      2.683544
  C      -4.266900     -4.062083      0.075836
  C       0.820659     -1.457998     -1.463236
  C      -1.438623     -0.982474     -2.229648
  C      -4.557217     -5.083304      2.260373
  C      -5.022367     -4.823407      0.961477
  C       1.328942     -0.765787     -2.556825
  C      -0.922972     -0.282164     -3.319762
  C       0.455610     -0.166830     -3.485515
  H      -0.087131      1.624971      3.071900
  H       2.844291      1.600024      2.195412
  H       1.481879      0.494775      4.702938
  H       2.737039     -1.111282      2.449707
  H       3.532072      3.259111     -0.995034
  H       2.042823      4.710243      0.524105
  H       1.823299      2.076903     -2.288043
  H       1.035102      4.792832     -3.433320
  H      -0.249761     -0.799305      2.973794
  H      -0.598494      2.742156      1.001855
  H       0.547269      3.712231      1.964661
  H      -0.467038      3.021709     -1.445289
  H      -2.042540      4.953431     -1.257582
  H      -2.018141      4.306921     -2.908330
  H      -1.151228      5.819726     -2.523140
  H       1.683131      2.838103      4.454056
  H       3.763634      1.252600      4.655069
  H       1.109271     -2.591263      3.737444
  H       2.449420      5.726225     -1.765580
  H       3.469930      3.891298     -3.619154
  H      -0.307062      3.606342     -4.660674
  H      -4.614666     -3.865835     -0.930896
  H       1.509453     -1.889607     -0.749676
  H      -2.511835     -1.072383     -2.103971
  H      -5.159210     -5.680188      2.944803
  H      -1.585442      0.177722     -4.047670
  H      -3.512439     -5.368281      4.406242
  H      -6.639956     -5.818910      1.217144
  H       2.783897     -0.084477     -3.530828
  H       0.758757      1.431445     -4.533085
73
Coordinates from ORCA-job Rutin E -2249.182459719279
  O       0.563806      0.427852      1.526277
  O       1.337534      2.778493      0.279529
  O       0.567234      4.751727     -0.764970
  O       2.293689      2.833372      3.725187
  O       3.513601      0.352441      4.426700
  O       0.607479     -1.840890      1.414751
  O       1.742616     -1.931347      4.091576
  O       3.242296      5.039377     -1.799599
  O       2.975399      2.959720     -3.632790
  O       0.086435      3.024081     -3.990993
  O      -2.348352     -2.865673     -0.414106
  O      -0.657110     -3.369832      3.264536
  O      -2.844089     -4.834409      3.935370
  O      -6.184065     -5.368003      0.516541
  O       2.633725     -0.580033     -2.735517
  O       1.002269      0.499736     -4.551363
  C       0.682869      1.618899      2.292012
  C       2.055865      1.633243      2.978883
  C       2.205134      0.411289      3.892190
  C       1.895212     -0.892134      3.151810
  C       2.695792      3.788319     -1.368662
  C       1.679873      4.023186     -0.248025
  C       2.049639      3.067787     -2.566468
  C       0.775721      3.809656     -3.001282
  C       0.614411     -0.749829      2.313504
  C       0.426360      2.806787      1.376930
  C      -0.157133      4.059635     -1.802565
  C      -1.367952      4.916384     -2.141975
  C      -0.611761     -2.398940      1.118720
  C      -1.146864     -2.275276     -0.129858
  C      -1.220790     -3.221724      2.172277
  C      -2.516966     -3.809871      1.809920
  C      -0.593597     -1.556476     -1.289147
  C      -3.032266     -3.592681      0.514618
  C      -3.307417     -4.605289      2.685080
  C      -4.251783     -4.104865      0.075411
  C       0.796729     -1.426676     -1.463611
  C      -1.469677     -1.001665     -2.240150
  C      -4.529580     -5.125392      2.261839
  C      -4.997129     -4.875096      0.961775
  C       1.294375     -0.735738     -2.563548
  C      -0.964601     -0.301409     -3.335204
  C       0.411841     -0.162158     -3.499102
  H      -0.102909      1.648564      3.074214
  H       2.831731      1.617212      2.209082
  H       1.459471      0.504922      4.707684
  H       2.722451     -1.091211      2.450597
  H       3.537260      3.194962     -1.001910
  H       2.096065      4.685551      0.523849
  H       1.782286      2.050602     -2.266890
  H       1.068545      4.773040     -3.443007
  H      -0.266156     -0.789919      2.973133
  H      -0.603964      2.763817      1.001998
  H       0.551625      3.730094      1.956681
  H      -0.484504      3.081686     -1.426442
  H      -1.993494      5.059269     -1.255622
  H      -1.972371      4.428199     -2.913514
  H      -1.056088      5.903921     -2.503520
  H       1.659376      2.851749      4.463176
  H       3.740589      1.267482      4.667078
  H       1.094085     -2.576170      3.737470
  H       2.513695      5.684448     -1.776527
  H       3.474023      3.797435     -3.630725
  H      -0.243176      3.605904     -4.690252
  H      -4.601482     -3.915202     -0.931920
  H       1.491378     -1.839269     -0.744388
  H      -2.541255     -1.111173     -2.115817
  H      -5.123753     -5.729112      2.947099
  H      -1.633205      0.139844     -4.069085
  H      -3.483524     -5.390980      4.409150
  H      -6.600313     -5.893473      1.217928
  H       2.737103     -0.041416     -3.545837
  H       0.733436      1.446544     -4.524584
73
Coordinates from ORCA-job Rutin E -2249.182530878672
  O       0.542932      0.439602      1.527831
  O       1.335641      2.771506      0.268418
  O       0.621101      4.769423     -0.767783
  O       2.274692      2.848750      3.721627
  O       3.485546      0.367404      4.438078
  O       0.590059     -1.826789      1.416262
  O       1.716523     -1.913608      4.101831
  O       3.301829      4.984197     -1.805532
  O       2.974708      2.911753     -3.640528
  O       0.083571      3.061615     -3.994160
  O      -2.356141     -2.886862     -0.406788
  O      -0.653611     -3.371915      3.268645
  O      -2.819259     -4.865594      3.941514
  O      -6.150142     -5.452174      0.522597
  O       2.584543     -0.528372     -2.740420
  O       0.930243      0.519709     -4.557534
  C       0.666548      1.633499      2.287592
  C       2.036979      1.645956      2.979374
  C       2.179564      0.427257      3.897530
  C       1.870730     -0.877437      3.159460
  C       2.722243      3.748247     -1.374565
  C       1.712768      4.008416     -0.253234
  C       2.054819      3.046249     -2.571524
  C       0.801975      3.823906     -3.005252
  C       0.592099     -0.736914      2.316652
  C       0.421793      2.816717      1.363167
  C      -0.123052      4.101010     -1.806899
  C      -1.306428      4.994197     -2.147830
  C      -0.623774     -2.397590      1.123832
  C      -1.162842     -2.279749     -0.123680
  C      -1.220335     -3.229838      2.177131
  C      -2.508541     -3.835643      1.816077
  C      -0.623792     -1.550266     -1.283332
  C      -3.027765     -3.625826      0.521214
  C      -3.286204     -4.643581      2.691276
  C      -4.238628     -4.157715      0.081731
  C       0.763936     -1.400958     -1.462010
  C      -1.511026     -1.008029     -2.231550
  C      -4.499901     -5.182979      2.267980
  C      -4.971414     -4.940091      0.967881
  C       1.248320     -0.704004     -2.564350
  C      -1.019050     -0.302333     -3.328987
  C       0.354749     -0.145320     -3.498259
  H      -0.121611      1.673337      3.066991
  H       2.816089      1.624936      2.212940
  H       1.430418      0.524662      4.709366
  H       2.699077     -1.078033      2.459792
  H       3.547418      3.131999     -1.008428
  H       2.146537      4.656097      0.521432
  H       1.760936      2.037102     -2.270559
  H       1.121830      4.778555     -3.446599
  H      -0.291335     -0.778431      2.972412
  H      -0.607762      2.779251      0.985538
  H       0.553152      3.743325      1.935977
  H      -0.480739      3.133123     -1.432106
  H      -1.935956      5.146409     -1.265896
  H      -1.915566      4.529581     -2.929798
  H      -0.962992      5.975257     -2.498024
  H       1.637879      2.871338      4.457355
  H       3.713070      1.282658      4.677155
  H       1.078038     -2.566400      3.743406
  H       2.591722      5.649466     -1.778131
  H       3.500889      3.732495     -3.636979
  H      -0.178554      3.645420     -4.719843
  H      -4.591448     -3.973057     -0.925449
  H       1.466349     -1.803849     -0.745075
  H      -2.580468     -1.132402     -2.103252
  H      -5.084335     -5.796173      2.953196
  H      -1.695450      0.128619     -4.061925
  H      -3.449917     -5.432095      4.415284
  H      -6.557670     -5.984623      1.223847
  H       2.677453      0.007467     -3.554214
  H       0.682642      1.472039     -4.506296
73
Coordinates from ORCA-job Rutin E -2249.182634627251
  O       0.525935      0.444271      1.524700
  O       1.332284      2.768814      0.260979
  O       0.662374      4.788336     -0.767767
  O       2.254814      2.858796      3.715108
  O       3.464041      0.379071      4.440302
  O       0.577314     -1.822992      1.417133
  O       1.704219     -1.904775      4.101442
  O       3.349417      4.952384     -1.795542
  O       2.985518      2.891445     -3.639553
  O       0.096919      3.105941     -4.001891
  O      -2.363036     -2.911190     -0.400240
  O      -0.652443     -3.371424      3.273686
  O      -2.799596     -4.887468      3.951710
  O      -6.128500     -5.516014      0.538592
  O       2.543272     -0.488318     -2.743640
  O       0.869419      0.526094     -4.566632
  C       0.649700      1.640991      2.280827
  C       2.018508      1.654095      2.975519
  C       2.159372      0.437623      3.896342
  C       1.854333     -0.868383      3.159110
  C       2.743826      3.726787     -1.371063
  C       1.735242      4.001647     -0.252228
  C       2.065909      3.042578     -2.572216
  C       0.831035      3.847766     -3.008164
  C       0.575671     -0.731437      2.315880
  C       0.414083      2.823097      1.351756
  C      -0.092500      4.141276     -1.812793
  C      -1.253716      5.062037     -2.156230
  C      -0.632698     -2.403026      1.126001
  C      -1.175299     -2.290815     -0.120700
  C      -1.220649     -3.238153      2.181668
  C      -2.502709     -3.858232      1.823953
  C      -0.647882     -1.556646     -1.282543
  C      -3.025887     -3.656145      0.529576
  C      -3.270527     -4.672693      2.701716
  C      -4.231637     -4.201803      0.092501
  C       0.737051     -1.385299     -1.462709
  C      -1.544165     -1.032124     -2.232577
  C      -4.478864     -5.225776      2.280963
  C      -4.954738     -4.990391      0.981125
  C       1.209680     -0.685032     -2.567982
  C      -1.064104     -0.322521     -3.332561
  C       0.306941     -0.144051     -3.503477
  H      -0.141071      1.685621      3.057262
  H       2.799163      1.630338      2.210641
  H       1.408074      0.535746      4.706126
  H       2.683790     -1.066091      2.459929
  H       3.554929      3.092673     -1.003863
  H       2.178133      4.635955      0.528290
  H       1.751369      2.039013     -2.274032
  H       1.172864      4.796675     -3.445181
  H      -0.308015     -0.774369      2.971129
  H      -0.614194      2.790728      0.970152
  H       0.549007      3.750203      1.922713
  H      -0.473584      3.179945     -1.444151
  H      -1.883784      5.225378     -1.276650
  H      -1.868488      4.613677     -2.942913
  H      -0.886674      6.036331     -2.501277
  H       1.616309      2.883560      4.449284
  H       3.690438      1.294247      4.680535
  H       1.065819     -2.558856      3.745057
  H       2.652800      5.631757     -1.767508
  H       3.531821      3.698903     -3.630482
  H      -0.119142      3.691721     -4.741091
  H      -4.587728     -4.022416     -0.914465
  H       1.446498     -1.772785     -0.744436
  H      -2.611373     -1.173249     -2.103608
  H      -5.055768     -5.844052      2.968000
  H      -1.747277      0.094789     -4.067140
  H      -3.423448     -5.459831      4.427442
  H      -6.529272     -6.051472      1.241443
  H       2.630050      0.042234     -3.561658
  H       0.626529      1.479186     -4.504031
73
Coordinates from ORCA-job Rutin E -2249.182705297745
  O       0.516683      0.442878      1.521299
  O       1.325434      2.760820      0.250615
  O       0.694326      4.801012     -0.767001
  O       2.233771      2.868087      3.709017
  O       3.447087      0.392017      4.444402
  O       0.574482     -1.825835      1.421002
  O       1.700126     -1.897888      4.103312
  O       3.381771      4.918104     -1.795083
  O       2.976721      2.865499     -3.645060
  O       0.093183      3.138910     -4.005203
  O      -2.361570     -2.928758     -0.395650
  O      -0.649735     -3.375145      3.278558
  O      -2.786033     -4.906024      3.956782
  O      -6.115031     -5.550185      0.546821
  O       2.521151     -0.459149     -2.741635
  O       0.834259      0.540453     -4.563828
  C       0.635822      1.642986      2.273763
  C       2.002402      1.660608      2.972585
  C       2.143775      0.446940      3.896790
  C       1.845704     -0.861546      3.160820
  C       2.754122      3.702612     -1.374618
  C       1.750646      3.990152     -0.254609
  C       2.061895      3.034723     -2.576141
  C       0.843241      3.864749     -3.011050
  C       0.567897     -0.730792      2.316120
  C       0.405251      2.822693      1.339188
  C      -0.074438      4.174927     -1.815125
  C      -1.215275      5.121801     -2.155769
  C      -0.632898     -2.411791      1.128637
  C      -1.176940     -2.300915     -0.117753
  C      -1.217180     -3.247679      2.185205
  C      -2.495665     -3.875599      1.828763
  C      -0.657097     -1.562550     -1.279749
  C      -3.020873     -3.676366      0.534747
  C      -3.258963     -4.693361      2.707274
  C      -4.224653     -4.227257      0.098439
  C       0.725425     -1.374702     -1.460908
  C      -1.559513     -1.049996     -2.230894
  C      -4.465008     -5.252079      2.287345
  C      -4.943253     -5.019000      0.987974
  C       1.189417     -0.669832     -2.566808
  C      -1.088333     -0.335156     -3.331004
  C       0.280516     -0.138634     -3.501774
  H      -0.158553      1.689709      3.046253
  H       2.785442      1.635196      2.210070
  H       1.389893      0.544636      4.704284
  H       2.677863     -1.054908      2.463536
  H       3.553196      3.052009     -1.009691
  H       2.204010      4.610815      0.530804
  H       1.728307      2.037744     -2.277199
  H       1.203880      4.806930     -3.447339
  H      -0.316303     -0.775086      2.970440
  H      -0.622361      2.791871      0.955625
  H       0.541792      3.751199      1.907258
  H      -0.476692      3.220387     -1.451388
  H      -1.837947      5.300786     -1.273875
  H      -1.842201      4.686105     -2.939802
  H      -0.828099      6.087488     -2.503043
  H       1.592302      2.894270      4.440527
  H       3.670293      1.307106      4.687614
  H       1.059311     -2.551532      3.750601
  H       2.697627      5.609948     -1.764451
  H       3.542761      3.659208     -3.633892
  H      -0.076701      3.719497     -4.760332
  H      -4.582158     -4.049408     -0.908271
  H       1.440177     -1.750817     -0.741997
  H      -2.624882     -1.204252     -2.102587
  H      -5.038420     -5.873236      2.974728
  H      -1.776273      0.073256     -4.066009
  H      -3.406585     -5.481543      4.433024
  H      -6.512678     -6.087202      1.250245
  H       2.605489      0.073529     -3.558321
  H       0.580558      1.490466     -4.501011
73
Coordinates from ORCA-job Rutin E -2249.182756817875
  O       0.503730      0.444088      1.519629
  O       1.314940      2.753079      0.238634
  O       0.727645      4.813386     -0.766124
  O       2.218079      2.877137      3.700950
  O       3.430303      0.403384      4.447394
  O       0.567838     -1.824477      1.422804
  O       1.692099     -1.890202      4.105841
  O       3.416534      4.882297     -1.790775
  O       2.970425      2.841306     -3.649480
  O       0.089909      3.173337     -4.008070
  O      -2.363890     -2.945868     -0.389802
  O      -0.647176     -3.377469      3.283137
  O      -2.769964     -4.925837      3.962949
  O      -6.096869     -5.595229      0.555974
  O       2.491275     -0.422737     -2.737799
  O       0.790851      0.550854     -4.565970
  C       0.622151      1.646949      2.268160
  C       1.987673      1.666819      2.968905
  C       2.128061      0.456268      3.897086
  C       1.833933     -0.854164      3.162897
  C       2.765371      3.677418     -1.376273
  C       1.765659      3.977796     -0.256424
  C       2.059837      3.027418     -2.579216
  C       0.858093      3.881859     -3.013800
  C       0.556698     -0.728071      2.316602
  C       0.395869      2.823376      1.327508
  C      -0.054153      4.211034     -1.818761
  C      -1.169722      5.187964     -2.158452
  C      -0.636832     -2.416860      1.131725
  C      -1.183497     -2.308771     -0.113903
  C      -1.215343     -3.255275      2.189445
  C      -2.489077     -3.893407      1.834530
  C      -0.672708     -1.566392     -1.277246
  C      -3.016881     -3.698339      0.540992
  C      -3.245440     -4.716644      2.713895
  C      -4.216885     -4.258190      0.105533
  C       0.706909     -1.358455     -1.457617
  C      -1.581259     -1.069514     -2.231207
  C      -4.447587     -5.284419      2.294873
  C      -4.928697     -5.055156      0.995864
  C       1.162012     -0.650846     -2.565463
  C      -1.119156     -0.350287     -3.332211
  C       0.246973     -0.133749     -3.502051
  H      -0.174007      1.697440      3.038413
  H       2.771761      1.637861      2.207497
  H       1.372380      0.555203      4.702754
  H       2.667562     -1.045120      2.466636
  H       3.551259      3.009745     -1.013332
  H       2.228945      4.583379      0.534827
  H       1.707392      2.037037     -2.280943
  H       1.237163      4.816581     -3.450097
  H      -0.328547     -0.774274      2.969355
  H      -0.631687      2.794027      0.943708
  H       0.535283      3.753804      1.891433
  H      -0.481873      3.265677     -1.459986
  H      -1.786907      5.382407     -1.275930
  H      -1.807273      4.769643     -2.943330
  H      -0.757807      6.143932     -2.504110
  H       1.574729      2.906830      4.430658
  H       3.652005      1.318541      4.691593
  H       1.051438     -2.545095      3.755062
  H       2.746139      5.587299     -1.756702
  H       3.557030      3.619833     -3.634457
  H      -0.017736      3.739099     -4.785517
  H      -4.576416     -4.082915     -0.900892
  H       1.426560     -1.719438     -0.736018
  H      -2.644389     -1.239247     -2.104426
  H      -5.015724     -5.910002      2.982623
  H      -1.811699      0.045335     -4.069918
  H      -3.385829     -5.505905      4.439762
  H      -6.489934     -6.134835      1.259992
  H       2.572910      0.109357     -3.555151
  H       0.545242      1.502291     -4.492583
73
Coordinates from ORCA-job Rutin E -2249.182855506124
  O       0.484801      0.439467      1.516559
  O       1.292857      2.731889      0.212819
  O       0.773513      4.821988     -0.764842
  O       2.189318      2.894185      3.680794
  O       3.404674      0.428026      4.451931
  O       0.564397     -1.827023      1.427839
  O       1.679778     -1.873681      4.118254
  O       3.463892      4.821380     -1.784807
  O       2.953794      2.805158     -3.663129
  O       0.081594      3.227921     -4.017228
  O      -2.363449     -2.966379     -0.378993
  O      -0.637020     -3.391114      3.289463
  O      -2.743151     -4.963050      3.968266
  O      -6.072422     -5.648112      0.566835
  O       2.452782     -0.376958     -2.732478
  O       0.729207      0.584589     -4.554791
  C       0.599184      1.648219      2.255748
  C       1.962808      1.676643      2.959652
  C       2.103865      0.473853      3.897755
  C       1.817773     -0.842321      3.170368
  C       2.777261      3.632539     -1.383215
  C       1.783673      3.949124     -0.262756
  C       2.051199      3.014530     -2.589383
  C       0.876642      3.906358     -3.020624
  C       0.542839     -0.727962      2.318836
  C       0.374414      2.814244      1.301033
  C      -0.026753      4.259242     -1.826015
  C      -1.102888      5.280952     -2.160262
  C      -0.636284     -2.428502      1.138682
  C      -1.188002     -2.319402     -0.104756
  C      -1.206765     -3.272595      2.196104
  C      -2.475343     -3.921597      1.842350
  C      -0.690894     -1.566801     -1.267330
  C      -3.007852     -3.726966      0.550637
  C      -3.222887     -4.753495      2.721025
  C      -4.204222     -4.294755      0.115797
  C       0.684482     -1.336460     -1.451047
  C      -1.609162     -1.081671     -2.218420
  C      -4.421432     -5.329533      2.302637
  C      -4.907448     -5.100106      1.005451
  C       1.126211     -0.620902     -2.559341
  C      -1.161011     -0.351920     -3.318008
  C       0.201239     -0.112659     -3.490932
  H      -0.199793      1.704743      3.022470
  H       2.748712      1.641495      2.200287
  H       1.345456      0.575814      4.700438
  H       2.654737     -1.031607      2.477443
  H       3.542325      2.937812     -1.026345
  H       2.261504      4.528998      0.538808
  H       1.669119      2.034735     -2.294062
  H       1.282214      4.830943     -3.454045
  H      -0.345262     -0.778396      2.967468
  H      -0.652436      2.778465      0.915904
  H       0.510949      3.751080      1.854423
  H      -0.491784      3.327873     -1.477093
  H      -1.709840      5.496197     -1.275378
  H      -1.756158      4.891131     -2.946815
  H      -0.654650      6.222037     -2.501524
  H       1.542337      2.930958      4.406938
  H       3.621969      1.344287      4.695721
  H       1.046814     -2.536301      3.767677
  H       2.815115      5.545880     -1.742715
  H       3.572356      3.558226     -3.639512
  H       0.091470      3.748802     -4.832524
  H      -4.567322     -4.118898     -0.889221
  H       1.412070     -1.684280     -0.731056
  H      -2.669228     -1.268363     -2.090401
  H      -4.982986     -5.962062      2.989450
  H      -1.861260      0.034389     -4.053412
  H      -3.353296     -5.549655      4.444420
  H      -6.459746     -6.192363      1.270452
  H       2.532633      0.158305     -3.547740
  H       0.494469      1.537307     -4.464933
73
Coordinates from ORCA-job Rutin E -2249.182871868055
  O       0.463433      0.414539      1.509679
  O       1.249060      2.685661      0.160215
  O       0.811946      4.812806     -0.763618
  O       2.149679      2.916625      3.631711
  O       3.377026      0.468160      4.450683
  O       0.575146     -1.846393      1.438753
  O       1.671768     -1.850309      4.145240
  O       3.511051      4.749296     -1.763882
  O       2.933952      2.786006     -3.692703
  O       0.076510      3.312881     -4.048516
  O      -2.357334     -2.982685     -0.358390
  O      -0.614108     -3.427968      3.299079
  O      -2.708293     -5.022900      3.970737
  O      -6.056421     -5.675939      0.581485
  O       2.416778     -0.328496     -2.715645
  O       0.661133      0.652953     -4.514517
  C       0.567558      1.634419      2.230125
  C       1.929797      1.683859      2.935055
  C       2.076938      0.497909      3.894275
  C       1.804587     -0.831264      3.184441
  C       2.782252      3.575869     -1.396277
  C       1.789546      3.896631     -0.277003
  C       2.038250      3.009932     -2.614312
  C       0.896388      3.944048     -3.036899
  C       0.534276     -0.741765      2.323081
  C       0.332522      2.776714      1.248620
  C      -0.003139      4.307542     -1.843568
  C      -1.031938      5.380821     -2.162196
  C      -0.622886     -2.454530      1.152869
  C      -1.183786     -2.332499     -0.085213
  C      -1.186627     -3.306325      2.207507
  C      -2.453719     -3.959023      1.853927
  C      -0.703781     -1.562188     -1.242954
  C      -2.994176     -3.752751      0.567052
  C      -3.194858     -4.800579      2.728615
  C      -4.192050     -4.316457      0.132650
  C       0.666224     -1.309833     -1.434246
  C      -1.634370     -1.078758     -2.183506
  C      -4.395238     -5.373698      2.310474
  C      -4.889105     -5.131475      1.018516
  C       1.091561     -0.580030     -2.539770
  C      -1.203685     -0.328909     -3.276105
  C       0.154172     -0.067130     -3.456077
  H      -0.234070      1.698569      2.993172
  H       2.716334      1.636758      2.176827
  H       1.316134      0.606765      4.693644
  H       2.647477     -1.020682      2.498366
  H       3.520411      2.846038     -1.052622
  H       2.278176      4.437606      0.544528
  H       1.622830      2.040754     -2.331982
  H       1.328128      4.863560     -3.454759
  H      -0.358954     -0.800186      2.964224
  H      -0.692476      2.713856      0.862236
  H       0.449786      3.727542      1.781187
  H      -0.510719      3.390331     -1.516972
  H      -1.619249      5.617341     -1.269316
  H      -1.706688      5.026690     -2.947676
  H      -0.545161      6.304643     -2.497800
  H       1.497523      2.967982      4.352274
  H       3.585281      1.387087      4.691950
  H       1.058015     -2.530538      3.793836
  H       2.887760      5.494804     -1.707660
  H       3.592644      3.502838     -3.645504
  H       0.287599      3.710454     -4.905166
  H      -4.560930     -4.130367     -0.868368
  H       1.404857     -1.647312     -0.720651
  H      -2.690994     -1.281630     -2.052656
  H      -4.952267     -6.014361      2.993447
  H      -1.914267      0.055127     -4.002896
  H      -3.315083     -5.615523      4.443692
  H      -6.439864     -6.226090      1.282623
  H       2.501645      0.219723     -3.521089
  H       0.445785      1.607355     -4.400680
73
Coordinates from ORCA-job Rutin E -2249.183060600340
  O       0.441746      0.413715      1.502228
  O       1.234104      2.674354      0.140528
  O       0.857661      4.823052     -0.760916
  O       2.119426      2.932995      3.610447
  O       3.350742      0.491628      4.447686
  O       0.565446     -1.846553      1.440932
  O       1.654508     -1.832494      4.151432
  O       3.560591      4.702166     -1.744995
  O       2.942345      2.770684     -3.697804
  O       0.099634      3.376557     -4.063019
  O      -2.363221     -3.007400     -0.348108
  O      -0.604190     -3.438889      3.302844
  O      -2.677654     -5.058401      3.978748
  O      -6.032379     -5.738410      0.601552
  O       2.367338     -0.288545     -2.718783
  O       0.588006      0.674037     -4.511149
  C       0.542544      1.638548      2.214815
  C       1.903142      1.694867      2.922228
  C       2.051459      0.515449      3.889083
  C       1.784846     -0.818190      3.185717
  C       2.800341      3.544078     -1.394034
  C       1.807942      3.877024     -0.278028
  C       2.048320      3.009254     -2.620504
  C       0.933378      3.975374     -3.041806
  C       0.516125     -0.738452      2.320991
  C       0.312047      2.773878      1.223515
  C       0.035990      4.353010     -1.851663
  C      -0.958030      5.459607     -2.166619
  C      -0.627725     -2.465304      1.156797
  C      -1.195101     -2.345390     -0.078559
  C      -1.180477     -3.322772      2.212630
  C      -2.441720     -3.988467      1.862710
  C      -0.730150     -1.566156     -1.236474
  C      -2.989050     -3.785404      0.578270
  C      -3.171061     -4.838597      2.738951
  C      -4.183124     -4.360100      0.147473
  C       0.635000     -1.292976     -1.432860
  C      -1.671220     -1.094652     -2.172860
  C      -4.367389     -5.422768      2.324373
  C      -4.868653     -5.183296      1.034784
  C       1.045583     -0.556452     -2.539526
  C      -1.255777     -0.336665     -3.265603
  C       0.097482     -0.054540     -3.450843
  H      -0.261791      1.707522      2.974468
  H       2.691010      1.643641      2.165560
  H       1.289089      0.626812      4.686571
  H       2.629901     -1.007422      2.502109
  H       3.517485      2.792098     -1.053486
  H       2.303214      4.395506      0.553823
  H       1.607344      2.049053     -2.346862
  H       1.389947      4.887097     -3.449908
  H      -0.378632     -0.799695      2.959844
  H      -0.710562      2.707676      0.831444
  H       0.425910      3.728309      1.749944
  H      -0.501194      3.448160     -1.538032
  H      -1.540819      5.707739     -1.273876
  H      -1.639265      5.131888     -2.957704
  H      -0.442187      6.370854     -2.492976
  H       1.464785      2.989047      4.328385
  H       3.555783      1.411555      4.687679
  H       1.047751     -2.519373      3.800536
  H       2.956273      5.462777     -1.684463
  H       3.624175      3.464539     -3.638299
  H       0.380414      3.719439     -4.923480
  H      -4.557696     -4.175829     -0.851754
  H       1.381718     -1.618441     -0.722226
  H      -2.724266     -1.313224     -2.038774
  H      -4.915455     -6.070135      3.008279
  H      -1.974584      0.037443     -3.989543
  H      -3.276659     -5.657984      4.452839
  H      -6.407810     -6.293044      1.303490
  H       2.446831      0.260376     -3.524129
  H       0.376163      1.628112     -4.388440
73
Coordinates from ORCA-job Rutin E -2249.183043768585
  O       0.413484      0.396327      1.481505
  O       1.227917      2.672052      0.133271
  O       0.854538      4.827207     -0.768599
  O       2.083657      2.939378      3.566400
  O       3.342572      0.511168      4.404271
  O       0.550759     -1.868166      1.443710
  O       1.641457     -1.819655      4.147533
  O       3.599768      4.736123     -1.657799
  O       3.061580      2.847394     -3.669305
  O       0.253411      3.475658     -4.139942
  O      -2.391906     -3.035253     -0.327738
  O      -0.583114     -3.476289      3.299198
  O      -2.636540     -5.110836      3.993639
  O      -6.043087     -5.780155      0.666999
  O       2.315116     -0.323709     -2.751311
  O       0.513114      0.688466     -4.490560
  C       0.507725      1.627101      2.186123
  C       1.872008      1.696212      2.885590
  C       2.037531      0.523575      3.858020
  C       1.770394     -0.816129      3.169127
  C       2.829275      3.570890     -1.354383
  C       1.798933      3.884616     -0.266032
  C       2.127190      3.058631     -2.621285
  C       1.027386      4.034679     -3.057684
  C       0.497324     -0.749825      2.310201
  C       0.277206      2.761142      1.193625
  C       0.079185      4.364877     -1.893510
  C      -0.925592      5.459468     -2.219998
  C      -0.638228     -2.495193      1.158327
  C      -1.221535     -2.370876     -0.068270
  C      -1.174074     -3.360173      2.217370
  C      -2.436761     -4.029281      1.880081
  C      -0.769460     -1.580933     -1.224731
  C      -3.003157     -3.820229      0.605030
  C      -3.150365     -4.885663      2.763023
  C      -4.203592     -4.396248      0.191432
  C       0.595201     -1.322514     -1.444654
  C      -1.723054     -1.081433     -2.132584
  C      -4.351791     -5.470671      2.364980
  C      -4.873602     -5.225392      1.085010
  C       0.993118     -0.574947     -2.547721
  C      -1.320000     -0.310791     -3.221554
  C       0.033215     -0.047009     -3.431822
  H      -0.295327      1.694006      2.947525
  H       2.653706      1.649228      2.122160
  H       1.282727      0.636014      4.662349
  H       2.611809     -1.013600      2.483496
  H       3.535578      2.814825     -1.000987
  H       2.266144      4.401460      0.582971
  H       1.678588      2.089969     -2.388248
  H       1.497801      4.964339     -3.408349
  H      -0.392451     -0.810785      2.956421
  H      -0.735492      2.686375      0.778798
  H       0.372567      3.715375      1.724213
  H      -0.451476      3.444050     -1.616790
  H      -1.541417      5.679306     -1.342260
  H      -1.576464      5.135150     -3.036853
  H      -0.417116      6.385592     -2.513705
  H       1.434560      2.993494      4.289486
  H       3.544602      1.433556      4.636976
  H       1.053219     -2.521540      3.794875
  H       2.990780      5.494195     -1.616788
  H       3.736962      3.542795     -3.568756
  H       0.554552      3.889686     -4.963789
  H      -4.595104     -4.208359     -0.800640
  H       1.352562     -1.669345     -0.755809
  H      -2.776123     -1.287260     -1.978666
  H      -4.887456     -6.122527      3.054374
  H      -2.049478      0.084047     -3.923797
  H      -3.225897     -5.715217      4.473666
  H      -6.406450     -6.339335      1.371697
  H       2.385407      0.227303     -3.555585
  H       0.277184      1.637509     -4.377369
73
Coordinates from ORCA-job Rutin E -2249.183190842660
  O       0.408549      0.419009      1.491207
  O       1.211710      2.710206      0.163810
  O       0.825357      4.857966     -0.745272
  O       2.130143      2.929840      3.571868
  O       3.386759      0.486908      4.366231
  O       0.538469     -1.845702      1.424404
  O       1.660800     -1.831015      4.115428
  O       3.562109      4.772176     -1.653481
  O       3.021333      2.835067     -3.624977
  O       0.207158      3.423115     -4.076349
  O      -2.401725     -3.021685     -0.343086
  O      -0.606649     -3.427858      3.296665
  O      -2.660083     -5.059565      3.996089
  O      -6.043241     -5.778609      0.655699
  O       2.355199     -0.399721     -2.761729
  O       0.583842      0.597600     -4.547544
  C       0.520200      1.639829      2.209502
  C       1.897328      1.694183      2.884149
  C       2.072759      0.511043      3.842167
  C       1.786051     -0.819617      3.144018
  C       2.804709      3.605488     -1.323545
  C       1.776198      3.924829     -0.236537
  C       2.095681      3.063791     -2.572466
  C       0.987547      4.021488     -3.021869
  C       0.501444     -0.736879      2.303809
  C       0.272015      2.784216      1.234880
  C       0.046404      4.377980     -1.860552
  C      -0.953279      5.471367     -2.205780
  C      -0.655893     -2.465667      1.147485
  C      -1.234892     -2.352741     -0.082089
  C      -1.193570     -3.322984      2.211738
  C      -2.453748     -3.996869      1.873774
  C      -0.763762     -1.583910     -1.246292
  C      -3.014213     -3.801495      0.593717
  C      -3.168454     -4.848451      2.760584
  C      -4.208321     -4.389320      0.178605
  C       0.606554     -1.348615     -1.456005
  C      -1.700792     -1.087473     -2.172301
  C      -4.364610     -5.443222      2.361467
  C      -4.879574     -5.213365      1.075944
  C       1.027244     -0.625312     -2.567360
  C      -1.275222     -0.345006     -3.272588
  C       0.083468     -0.103347     -3.473576
  H      -0.267872      1.699512      2.987375
  H       2.663829      1.649463      2.105013
  H       1.331887      0.619243      4.659769
  H       2.615235     -1.016941      2.443634
  H       3.520361      2.861672     -0.963252
  H       2.243448      4.447897      0.608650
  H       1.650629      2.099978     -2.315198
  H       1.449370      4.943343     -3.403736
  H      -0.378857     -0.801941      2.962461
  H      -0.744547      2.705893      0.830438
  H       0.365404      3.734543      1.772505
  H      -0.487298      3.464991     -1.564039
  H      -1.574863      5.702346     -1.334936
  H      -1.598567      5.143128     -3.025189
  H      -0.437935      6.391697     -2.505509
  H       1.494178      2.982842      4.306647
  H       3.596619      1.406305      4.603867
  H       1.077535     -2.533560      3.755590
  H       2.946045      5.525012     -1.622997
  H       3.693577      3.536060     -3.542903
  H       0.553657      3.747873     -4.921801
  H      -4.594992     -4.213462     -0.817594
  H       1.351542     -1.700215     -0.755412
  H      -2.758205     -1.276662     -2.025771
  H      -4.900994     -6.091073      3.054103
  H      -1.992275      0.046392     -3.989132
  H      -3.249566     -5.661819      4.478620
  H      -6.408246     -6.332700      1.363559
  H       2.442108      0.126806     -3.580339
  H       0.343488      1.549606     -4.478664
73
Coordinates from ORCA-job Rutin E -2249.183590706359
  O       0.421462      0.420806      1.482048
  O       1.248907      2.716367      0.150661
  O       0.850603      4.854143     -0.775862
  O       2.128251      2.923376      3.588373
  O       3.352047      0.472266      4.406474
  O       0.529504     -1.846939      1.426545
  O       1.617461     -1.834624      4.128998
  O       3.594790      4.793732     -1.658965
  O       3.089502      2.853776     -3.633428
  O       0.249803      3.387230     -4.096910
  O      -2.416046     -3.025805     -0.330775
  O      -0.593636     -3.453902      3.291801
  O      -2.632656     -5.103797      3.990797
  O      -6.030516     -5.818602      0.664395
  O       2.286967     -0.296867     -2.746808
  O       0.494625      0.675794     -4.516490
  C       0.532823      1.643480      2.198929
  C       1.898747      1.688936      2.897556
  C       2.047600      0.506237      3.860027
  C       1.762664     -0.824294      3.159476
  C       2.846471      3.619840     -1.332494
  C       1.805981      3.933185     -0.254127
  C       2.153418      3.066146     -2.586311
  C       1.028960      4.003410     -3.046951
  C       0.491093     -0.733519      2.300579
  C       0.304126      2.788789      1.218257
  C       0.079876      4.359354     -1.891896
  C      -0.929935      5.440103     -2.248429
  C      -0.663969     -2.470619      1.151978
  C      -1.251075     -2.352230     -0.073798
  C      -1.190311     -3.339494      2.212885
  C      -2.447597     -4.019858      1.877351
  C      -0.798969     -1.568829     -1.235073
  C      -3.017430     -3.817671      0.602692
  C      -3.150378     -4.885149      2.760514
  C      -4.209642     -4.410296      0.189053
  C       0.565920     -1.310053     -1.450814
  C      -1.749664     -1.077338     -2.150303
  C      -4.344204     -5.485495      2.362967
  C      -4.868966     -5.247768      1.082715
  C       0.966887     -0.561371     -2.553231
  C      -1.342795     -0.314585     -3.243762
  C       0.010288     -0.045241     -3.447579
  H      -0.266570      1.710208      2.964264
  H       2.679525      1.636507      2.134185
  H       1.293809      0.622571      4.664720
  H       2.601819     -1.028285      2.473275
  H       3.567720      2.885837     -0.962560
  H       2.260325      4.466545      0.591493
  H       1.724822      2.095032     -2.332471
  H       1.477867      4.927988     -3.435353
  H      -0.398263     -0.787266      2.947324
  H      -0.709541      2.714352      0.805517
  H       0.395560      3.739025      1.756173
  H      -0.445985      3.442846     -1.592166
  H      -1.555993      5.670763     -1.380605
  H      -1.569428      5.100201     -3.068246
  H      -0.423161      6.363944     -2.552183
  H       1.478669      2.982508      4.310690
  H       3.565874      1.390304      4.646087
  H       1.022704     -2.525905      3.767729
  H       2.971314      5.540627     -1.634889
  H       3.749440      3.566124     -3.548533
  H       0.610498      3.677764     -4.946546
  H      -4.603187     -4.228075     -0.803292
  H       1.319985     -1.658441     -0.758076
  H      -2.802831     -1.286194     -2.000611
  H      -4.871182     -6.144254      3.052527
  H      -2.069212      0.071135     -3.953860
  H      -3.214900     -5.714272      4.471875
  H      -6.386771     -6.382123      1.369278
  H       2.354084      0.255636     -3.550059
  H       0.257718      1.626173     -4.421146
73
Coordinates from ORCA-job Rutin E -2249.183803374449
  O       0.431003      0.399459      1.493854
  O       1.229677      2.684032      0.131630
  O       0.840345      4.830349     -0.782428
  O       2.119584      2.930355      3.581013
  O       3.357547      0.494950      4.422003
  O       0.547799     -1.863651      1.452801
  O       1.638988     -1.824612      4.164133
  O       3.574447      4.744837     -1.695938
  O       3.025053      2.841170     -3.690130
  O       0.191533      3.450452     -4.130512
  O      -2.393309     -3.014621     -0.326366
  O      -0.599014     -3.479635      3.305386
  O      -2.657582     -5.112976      3.981760
  O      -6.039663     -5.777911      0.628678
  O       2.332966     -0.320848     -2.730235
  O       0.545435      0.694999     -4.472702
  C       0.535630      1.628789      2.199485
  C       1.900270      1.688795      2.899920
  C       2.054017      0.515262      3.872720
  C       1.778113     -0.823814      3.184118
  C       2.815303      3.576532     -1.373664
  C       1.791790      3.895046     -0.279039
  C       2.102391      3.048641     -2.629456
  C       0.990587      4.015966     -3.065721
  C       0.506171     -0.747121      2.322669
  C       0.295734      2.762323      1.208602
  C       0.053286      4.361556     -1.898969
  C      -0.945118      5.460698     -2.228072
  C      -0.645681     -2.483107      1.170034
  C      -1.223642     -2.354704     -0.059258
  C      -1.186259     -3.353893      2.222587
  C      -2.447871     -4.020125      1.875337
  C      -0.762195     -1.567489     -1.214173
  C      -3.007598     -3.805900      0.598380
  C      -3.164954     -4.883423      2.749075
  C      -4.202410     -4.384367      0.173444
  C       0.605346     -1.319715     -1.430639
  C      -1.710095     -1.061623     -2.124196
  C      -4.361646     -5.470221      2.340364
  C      -4.875674     -5.220452      1.057914
  C       1.011067     -0.570784     -2.530465
  C      -1.298176     -0.293534     -3.211253
  C       0.056920     -0.038370     -3.415980
  H      -0.262854      1.698593      2.965609
  H       2.684046      1.636202      2.140685
  H       1.298164      0.634388      4.675111
  H       2.619392     -1.029361      2.501068
  H       3.532015      2.830584     -1.019092
  H       2.261644      4.421653      0.562344
  H       1.660176      2.077379     -2.389038
  H       1.453945      4.942584     -3.431218
  H      -0.383968     -0.798958      2.968309
  H      -0.721182      2.681058      0.804728
  H       0.390499      3.718134      1.736292
  H      -0.478640      3.445450     -1.609556
  H      -1.563537      5.682262     -1.352419
  H      -1.593228      5.144371     -3.050589
  H      -0.427647      6.383066     -2.518179
  H       1.467569      2.991349      4.300998
  H       3.565003      1.416905      4.652120
  H       1.048957     -2.524140      3.810862
  H       2.960127      5.498772     -1.656551
  H       3.695569      3.542931     -3.600560
  H       0.568396      3.743601     -4.972412
  H      -4.587449     -4.192680     -0.820465
  H       1.357955     -1.676742     -0.742741
  H      -2.764956     -1.260808     -1.973084
  H      -4.899512     -6.127472      3.022917
  H      -2.021940      0.108627     -3.914813
  H      -3.248968     -5.719973      4.456068
  H      -6.405952     -6.342043      1.327907
  H       2.400477      0.232560     -3.532732
  H       0.321486      1.644289     -4.342679
73
Coordinates from ORCA-job Rutin E -2249.184258633398
  O       0.424399      0.399469      1.481617
  O       1.227450      2.692645      0.135555
  O       0.829645      4.836056     -0.775277
  O       2.116568      2.925983      3.569620
  O       3.359967      0.489527      4.400044
  O       0.543417     -1.864250      1.437410
  O       1.639435     -1.830523      4.142120
  O       3.578956      4.782778     -1.649576
  O       3.077685      2.878742     -3.655062
  O       0.252720      3.450658     -4.132615
  O      -2.406530     -3.020978     -0.324064
  O      -0.590083     -3.473022      3.299106
  O      -2.643630     -5.108266      3.991778
  O      -6.044745     -5.784841      0.660396
  O       2.308477     -0.323320     -2.747449
  O       0.514694      0.682510     -4.492597
  C       0.528145      1.626282      2.191204
  C       1.895064      1.685915      2.886446
  C       2.054309      0.509986      3.855812
  C       1.777059     -0.826836      3.164500
  C       2.827642      3.605947     -1.341123
  C       1.784774      3.910373     -0.261790
  C       2.138793      3.073555     -2.606510
  C       1.023041      4.026953     -3.055623
  C       0.502992     -0.748621      2.307361
  C       0.285669      2.762607      1.205646
  C       0.064248      4.357974     -1.902148
  C      -0.944719      5.443573     -2.243753
  C      -0.650888     -2.484417      1.161297
  C      -1.236218     -2.359074     -0.064351
  C      -1.183629     -3.353145      2.219306
  C      -2.446782     -4.021419      1.880926
  C      -0.780758     -1.571777     -1.221779
  C      -3.014056     -3.811095      0.606482
  C      -3.158119     -4.882694      2.761335
  C      -4.211056     -4.391556      0.190512
  C       0.585318     -1.320314     -1.440843
  C      -1.731867     -1.070779     -2.131058
  C      -4.356827     -5.471520      2.361344
  C      -4.878516     -5.225634      1.081281
  C       0.987026     -0.573946     -2.543841
  C      -1.324328     -0.305979     -3.222446
  C       0.029763     -0.047554     -3.430732
  H      -0.269253      1.691632      2.958938
  H       2.675232      1.635800      2.122091
  H       1.301108      0.625746      4.661115
  H       2.616096     -1.030523      2.478104
  H       3.546666      2.866473     -0.978300
  H       2.238059      4.438160      0.587911
  H       1.704722      2.098016     -2.373879
  H       1.479741      4.960425     -3.413566
  H      -0.385161     -0.802624      2.956126
  H      -0.728654      2.677337      0.796671
  H       0.372132      3.716879      1.737558
  H      -0.459564      3.434942     -1.619396
  H      -1.578424      5.654966     -1.376615
  H      -1.576530      5.119804     -3.075788
  H      -0.436174      6.373470     -2.525139
  H       1.467471      2.985055      4.292371
  H       3.566949      1.411054      4.632231
  H       1.053901     -2.531978      3.784609
  H       2.955940      5.529902     -1.618179
  H       3.739182      3.587499     -3.553983
  H       0.670316      3.715314     -4.966337
  H      -4.602426     -4.202882     -0.801507
  H       1.340368     -1.673594     -0.752682
  H      -2.785790     -1.272928     -1.977319
  H      -4.890267     -6.127087      3.048958
  H      -2.051074      0.090486     -3.926347
  H      -3.232087     -5.714058      4.471212
  H      -6.406638     -6.347150      1.363363
  H       2.373957      0.221570     -3.556144
  H       0.281392      1.632221     -4.378939
73
Coordinates from ORCA-job Rutin E -2249.184561673871
  O       0.423028      0.399019      1.475258
  O       1.229572      2.702063      0.138297
  O       0.819363      4.839967     -0.778855
  O       2.120416      2.921378      3.563563
  O       3.364429      0.483606      4.387116
  O       0.536888     -1.866289      1.431789
  O       1.640345     -1.835190      4.131050
  O       3.578660      4.814093     -1.625809
  O       3.116198      2.907960     -3.635954
  O       0.295763      3.448128     -4.140826
  O      -2.420513     -3.021211     -0.319798
  O      -0.587437     -3.475768      3.295103
  O      -2.635925     -5.113824      3.994901
  O      -6.048795     -5.795265      0.676614
  O       2.290539     -0.325790     -2.755169
  O       0.495657      0.687300     -4.493079
  C       0.528005      1.624855      2.186710
  C       1.896443      1.682703      2.878642
  C       2.057546      0.505180      3.845839
  C       1.777372     -0.830632      3.153987
  C       2.836224      3.629677     -1.323354
  C       1.779279      3.924666     -0.255116
  C       2.166209      3.089661     -2.594898
  C       1.044912      4.030788     -3.054198
  C       0.501190     -0.749936      2.300629
  C       0.283839      2.764212      1.205625
  C       0.069985      4.350617     -1.911697
  C      -0.948863      5.423336     -2.264954
  C      -0.658807     -2.485341      1.158877
  C      -1.249421     -2.358814     -0.064072
  C      -1.186298     -3.355358      2.218395
  C      -2.449982     -4.024729      1.884399
  C      -0.796937     -1.569601     -1.221812
  C      -3.022732     -3.814178      0.612457
  C      -3.156065     -4.888323      2.766795
  C      -4.220196     -4.397286      0.200922
  C       0.568941     -1.319983     -1.443361
  C      -1.749472     -1.065737     -2.128100
  C      -4.355012     -5.479510      2.371237
  C      -4.882281     -5.233731      1.093482
  C       0.969212     -0.573373     -2.546525
  C      -1.343278     -0.299520     -3.219439
  C       0.010823     -0.043699     -3.430503
  H      -0.268194      1.688083      2.956040
  H       2.674574      1.633469      2.111717
  H       1.306204      0.620372      4.652962
  H       2.614395     -1.035273      2.465486
  H       3.559141      2.898268     -0.952121
  H       2.219990      4.458011      0.597839
  H       1.742129      2.108799     -2.368149
  H       1.495970      4.969827     -3.405658
  H      -0.384838     -0.801678      2.952660
  H      -0.729497      2.677441      0.794640
  H       0.365792      3.716911      1.741120
  H      -0.444626      3.421518     -1.631579
  H      -1.596058      5.625647     -1.405698
  H      -1.566039      5.093508     -3.105363
  H      -0.447981      6.359336     -2.539376
  H       1.473091      2.979744      4.287962
  H       3.572468      1.405082      4.618654
  H       1.053660     -2.535918      3.773882
  H       2.947466      5.554633     -1.602246
  H       3.767321      3.625419     -3.528088
  H       0.751160      3.681470     -4.964796
  H      -4.616066     -4.208647     -0.789320
  H       1.324815     -1.676254     -0.757498
  H      -2.803232     -1.266607     -1.972007
  H      -4.884171     -6.136836      3.060465
  H      -2.071002      0.099221     -3.921055
  H      -3.221298     -5.720901      4.476478
  H      -6.406638     -6.359159      1.380394
  H       2.351721      0.213681     -3.567914
  H       0.266619      1.638611     -4.378003
73
Coordinates from ORCA-job Rutin E -2249.185019158236
  O       0.422610      0.394728      1.467231
  O       1.230166      2.711730      0.141022
  O       0.800300      4.841252     -0.786015
  O       2.123545      2.914970      3.554559
  O       3.372787      0.478064      4.369249
  O       0.530159     -1.871334      1.425684
  O       1.648737     -1.842747      4.116725
  O       3.572771      4.856915     -1.593252
  O       3.167203      2.950770     -3.612034
  O       0.357377      3.449943     -4.157858
  O      -2.438539     -3.018750     -0.312414
  O      -0.584738     -3.481347      3.291572
  O      -2.627666     -5.122419      3.998473
  O      -6.056094     -5.803569      0.696192
  O       2.268673     -0.332929     -2.766361
  O       0.471350      0.696977     -4.488665
  C       0.527620      1.619644      2.180325
  C       1.898145      1.677571      2.867746
  C       2.064080      0.498371      3.832273
  C       1.782061     -0.836880      3.140166
  C       2.844301      3.660845     -1.299804
  C       1.767234      3.941246     -0.247542
  C       2.201947      3.111018     -2.580932
  C       1.073681      4.036335     -3.054187
  C       0.501984     -0.754525      2.293083
  C       0.278746      2.761618      1.204342
  C       0.074803      4.337651     -1.928502
  C      -0.956445      5.393012     -2.297801
  C      -0.667789     -2.487884      1.157437
  C      -1.265722     -2.357725     -0.061474
  C      -1.189250     -3.360086      2.218248
  C      -2.454470     -4.028908      1.889410
  C      -0.816911     -1.565050     -1.218795
  C      -3.034190     -3.816141      0.621043
  C      -3.154820     -4.895504      2.773563
  C      -4.232661     -4.401018      0.214633
  C       0.549127     -1.320730     -1.445437
  C      -1.771620     -1.054217     -2.118734
  C      -4.354619     -5.488103      2.383151
  C      -4.888717     -5.240714      1.108561
  C       0.947246     -0.573227     -2.548199
  C      -1.367271     -0.285132     -3.209246
  C      -0.013126     -0.035361     -3.425226
  H      -0.266729      1.679420      2.952041
  H       2.673329      1.631023      2.097504
  H       1.315265      0.611570      4.642066
  H       2.616128     -1.041501      2.448215
  H       3.573180      2.941801     -0.916390
  H       2.189288      4.483001      0.609650
  H       1.792760      2.121198     -2.364736
  H       1.517815      4.983991     -3.392783
  H      -0.380552     -0.802856      2.950260
  H      -0.732976      2.670931      0.790316
  H       0.352906      3.712547      1.744240
  H      -0.426486      3.399645     -1.653701
  H      -1.623631      5.581138     -1.450752
  H      -1.551648      5.057027     -3.151340
  H      -0.465172      6.337285     -2.560545
  H       1.478893      2.971384      4.281499
  H       3.580506      1.400094      4.599021
  H       1.061986     -2.544115      3.760713
  H       2.929364      5.587191     -1.580727
  H       3.802294      3.681010     -3.493569
  H       0.869518      3.639692     -4.960607
  H      -4.634164     -4.210934     -0.773083
  H       1.306489     -1.683507     -0.764868
  H      -2.825348     -1.251636     -1.958117
  H      -4.878984     -6.147708      3.073844
  H      -2.096352      0.119489     -3.906014
  H      -3.209696     -5.730911      4.482320
  H      -6.409348     -6.369927      1.400317
  H       2.322571      0.198655     -3.584908
  H       0.252486      1.650539     -4.366479
73
Coordinates from ORCA-job Rutin E -2249.185698296403
  O       0.424226      0.387559      1.456864
  O       1.232731      2.720680      0.140261
  O       0.777933      4.839487     -0.796629
  O       2.127248      2.907901      3.541505
  O       3.380311      0.472839      4.351436
  O       0.523269     -1.878798      1.420286
  O       1.654522     -1.849674      4.104467
  O       3.565385      4.908619     -1.555345
  O       3.227958      3.008434     -3.587895
  O       0.433974      3.457745     -4.181514
  O      -2.460466     -3.012989     -0.300709
  O      -0.578753     -3.494002      3.287218
  O      -2.616052     -5.139055      4.000840
  O      -6.064801     -5.811729      0.717921
  O       2.239923     -0.340034     -2.780428
  O       0.437956      0.711329     -4.480836
  C       0.528390      1.612143      2.170344
  C       1.900496      1.670976      2.854245
  C       2.070247      0.491230      3.817717
  C       1.786403     -0.844390      3.126887
  C       2.854890      3.698018     -1.274457
  C       1.753838      3.958600     -0.241516
  C       2.245815      3.138869     -2.567358
  C       1.109005      4.045028     -3.055816
  C       0.503327     -0.760725      2.284898
  C       0.273843      2.755140      1.197934
  C       0.081761      4.319953     -1.950866
  C      -0.964827      5.353403     -2.338166
  C      -0.677590     -2.491840      1.158067
  C      -1.285063     -2.355154     -0.055328
  C      -1.191939     -3.367624      2.219573
  C      -2.459189     -4.035160      1.896155
  C      -0.841551     -1.557038     -1.211530
  C      -3.047896     -3.817023      0.632866
  C      -3.152189     -4.907475      2.780654
  C      -4.247665     -4.402830      0.231754
  C       0.524548     -1.320772     -1.446874
  C      -1.799775     -1.035563     -2.101272
  C      -4.353252     -5.500734      2.395571
  C      -4.896175     -5.248345      1.125678
  C       0.918709     -0.571079     -2.548929
  C      -1.398820     -0.262720     -3.190969
  C      -0.044901     -0.021528     -3.415150
  H      -0.264477      1.668838      2.944009
  H       2.673142      1.626034      2.081376
  H       1.323331      0.603644      4.629420
  H       2.618028     -1.050877      2.432662
  H       3.590926      2.993978     -0.877213
  H       2.152532      4.509803      0.620884
  H       1.856150      2.137742     -2.365753
  H       1.543619      5.004204     -3.375848
  H      -0.376174     -0.803638      2.946624
  H      -0.735066      2.657160      0.778881
  H       0.335767      3.704876      1.741630
  H      -0.401677      3.370549     -1.683125
  H      -1.656145      5.521486     -1.506451
  H      -1.531974      5.011464     -3.208217
  H      -0.486616      6.308491     -2.584928
  H       1.484705      2.963611      4.270374
  H       3.587662      1.395909      4.577576
  H       1.067311     -2.551379      3.750040
  H       2.907208      5.625795     -1.554949
  H       3.842051      3.754355     -3.455679
  H       1.022412      3.576500     -4.946072
  H      -4.656270     -4.208804     -0.752301
  H       1.284740     -1.693263     -0.774889
  H      -2.853350     -1.227860     -1.933442
  H      -4.871591     -6.164641      3.086672
  H      -2.130289      0.150275     -3.880178
  H      -3.193825     -5.750447      4.486152
  H      -6.412279     -6.382656      1.421234
  H       2.283894      0.183115     -3.605105
  H       0.236157      1.667964     -4.349339
73
Coordinates from ORCA-job Rutin E -2249.186653297359
  O       0.426210      0.374420      1.439591
  O       1.237135      2.727917      0.135037
  O       0.749477      4.831985     -0.812114
  O       2.126405      2.899288      3.519882
  O       3.386279      0.468244      4.327598
  O       0.517101     -1.892091      1.411060
  O       1.660901     -1.858240      4.088204
  O       3.557585      4.981946     -1.492582
  O       3.322891      3.099534     -3.549506
  O       0.553190      3.473867     -4.215378
  O      -2.489185     -3.007876     -0.283585
  O      -0.566528     -3.513175      3.280223
  O      -2.595510     -5.163929      4.004917
  O      -6.078768     -5.818734      0.754864
  O       2.191423     -0.338072     -2.802657
  O       0.378174      0.734951     -4.472045
  C       0.526885      1.599438      2.152335
  C       1.899996      1.661847      2.833461
  C       2.074926      0.482613      3.797090
  C       1.791058     -0.854328      3.108648
  C       2.872775      3.750639     -1.236241
  C       1.736504      3.978358     -0.233496
  C       2.314991      3.183867     -2.547869
  C       1.166596      4.061089     -3.058537
  C       0.505333     -0.771486      2.271132
  C       0.265207      2.741306      1.181693
  C       0.098874      4.292901     -1.984675
  C      -0.970331      5.292975     -2.396769
  C      -0.687713     -2.500826      1.157472
  C      -1.309841     -2.354333     -0.047236
  C      -1.190977     -3.382076      2.219950
  C      -2.462241     -4.046569      1.906007
  C      -0.877227     -1.546776     -1.201713
  C      -3.064901     -3.820224      0.650752
  C      -3.145246     -4.925153      2.792178
  C      -4.268329     -4.404802      0.258958
  C       0.487359     -1.316737     -1.451241
  C      -1.843091     -1.012635     -2.075346
  C      -4.349824     -5.517108      2.416378
  C      -4.906507     -5.256965      1.154032
  C       0.871913     -0.561701     -2.552460
  C      -1.451103     -0.233437     -3.164492
  C      -0.098654      0.000582     -3.402646
  H      -0.265538      1.652255      2.926919
  H       2.670432      1.618590      2.058086
  H       1.329641      0.593948      4.610447
  H       2.620753     -1.062319      2.412656
  H       3.616770      3.066104     -0.820292
  H       2.099179      4.539813      0.638172
  H       1.954357      2.167508     -2.369004
  H       1.583528      5.037814     -3.350341
  H      -0.371228     -0.808426      2.937464
  H      -0.737927      2.628990      0.752665
  H       0.305319      3.690510      1.728440
  H      -0.357878      3.326805     -1.729826
  H      -1.693934      5.429118     -1.587017
  H      -1.496321      4.942548     -3.288954
  H      -0.515555      6.264976     -2.619937
  H       1.485317      2.954636      4.250058
  H       3.591971      1.392780      4.549488
  H       1.077925     -2.563475      3.733630
  H       2.879685      5.680392     -1.509049
  H       3.905683      3.866241     -3.394820
  H       1.238948      3.480062     -4.906601
  H      -4.688011     -4.204559     -0.719185
  H       1.253589     -1.699562     -0.791942
  H      -2.895484     -1.201090     -1.896114
  H      -4.860073     -6.185849      3.108814
  H      -2.188426      0.188236     -3.842081
  H      -3.167801     -5.778219      4.493058
  H      -6.418250     -6.394929      1.457792
  H       2.221241      0.175587     -3.633918
  H       0.194577      1.694924     -4.333879
73
Coordinates from ORCA-job Rutin E -2249.187567832571
  O       0.438901      0.353626      1.429402
  O       1.248147      2.746199      0.148156
  O       0.677782      4.810482     -0.842784
  O       2.145039      2.879139      3.503681
  O       3.423574      0.454295      4.288369
  O       0.511533     -1.911142      1.403020
  O       1.713078     -1.883160      4.057550
  O       3.501661      5.112156     -1.412200
  O       3.442812      3.249759     -3.485236
  O       0.725302      3.465957     -4.260495
  O      -2.531258     -2.977104     -0.256730
  O      -0.568227     -3.535634      3.277317
  O      -2.591760     -5.189171      4.003796
  O      -6.110005     -5.800358      0.782826
  O       2.139902     -0.363893     -2.841887
  O       0.322319      0.733333     -4.472811
  C       0.537745      1.577190      2.144532
  C       1.916677      1.643872      2.814312
  C       2.107105      0.461467      3.771076
  C       1.822652     -0.874652      3.080278
  C       2.875359      3.845722     -1.177912
  C       1.689152      4.017123     -0.220717
  C       2.400887      3.251136     -2.511184
  C       1.226648      4.067956     -3.062874
  C       0.523718     -0.790817      2.262236
  C       0.260054      2.720090      1.179610
  C       0.103105      4.230551     -2.037831
  C      -1.001457      5.169727     -2.497262
  C      -0.703819     -2.504440      1.163499
  C      -1.343311     -2.337695     -0.029336
  C      -1.201165     -3.392904      2.223874
  C      -2.479622     -4.046658      1.917539
  C      -0.917870     -1.524376     -1.182896
  C      -3.096247     -3.802810      0.672461
  C      -3.154570     -4.935039      2.800283
  C      -4.303529     -4.382112      0.285888
  C       0.446644     -1.321850     -1.459003
  C      -1.889619     -0.960840     -2.030229
  C      -4.363807     -5.520954      2.430218
  C      -4.933232     -5.244855      1.176908
  C       0.822319     -0.565217     -2.561199
  C      -1.504320     -0.181862     -3.122444
  C      -0.152652      0.022123     -3.387011
  H      -0.247943      1.622361      2.926144
  H       2.678791      1.608380      2.031595
  H       1.369329      0.564907      4.592340
  H       2.643322     -1.074866      2.371508
  H       3.638668      3.206445     -0.726503
  H       1.988975      4.607288      0.655599
  H       2.101025      2.207471     -2.360816
  H       1.604387      5.071761     -3.317777
  H      -0.342469     -0.818152      2.942517
  H      -0.733321      2.586676      0.734082
  H       0.267071      3.664502      1.736584
  H      -0.304874      3.240017     -1.796417
  H      -1.780492      5.246345     -1.732401
  H      -1.448977      4.807099     -3.427112
  H      -0.592555      6.170389     -2.678432
  H       1.512748      2.927692      4.241957
  H       3.627609      1.381291      4.501900
  H       1.125909     -2.589054      3.711322
  H       2.787175      5.771742     -1.461490
  H       3.949992      4.065603     -3.314194
  H       1.520139      3.332362     -4.812230
  H      -4.733788     -4.168869     -0.684898
  H       1.219201     -1.729645     -0.823035
  H      -2.941919     -1.129299     -1.830232
  H      -4.867613     -6.197295      3.119953
  H      -2.246264      0.258179     -3.782902
  H      -3.159471     -5.808341      4.491154
  H      -6.442473     -6.385976      1.481313
  H       2.151205      0.129614     -3.685695
  H       0.216664      1.700915     -4.323025
73
Coordinates from ORCA-job Rutin E -2249.187347964635
  O       0.470145      0.341867      1.406970
  O       1.315642      2.754979      0.152257
  O       0.655775      4.776743     -0.856736
  O       2.155168      2.855049      3.513301
  O       3.400184      0.419234      4.318978
  O       0.515553     -1.927425      1.398832
  O       1.646599     -1.894150      4.074661
  O       3.478768      5.214795     -1.397418
  O       3.516552      3.390229     -3.490390
  O       0.811041      3.489638     -4.292959
  O      -2.542397     -2.973563     -0.251253
  O      -0.550320     -3.556068      3.263985
  O      -2.584409     -5.195984      4.005227
  O      -6.140465     -5.761910      0.817670
  O       2.122832     -0.374327     -2.864644
  O       0.302967      0.746183     -4.466040
  C       0.562704      1.564733      2.124290
  C       1.929735      1.622041      2.819118
  C       2.092299      0.439107      3.780926
  C       1.801428     -0.896420      3.091824
  C       2.903839      3.921528     -1.179114
  C       1.704280      4.039711     -0.228034
  C       2.469154      3.323701     -2.525117
  C       1.257014      4.087521     -3.071931
  C       0.522456     -0.799327      2.246881
  C       0.302877      2.711831      1.159860
  C       0.121642      4.159650     -2.051605
  C      -1.049382      5.016064     -2.508492
  C      -0.700605     -2.517957      1.156604
  C      -1.346119     -2.346442     -0.031840
  C      -1.195489     -3.404110      2.219531
  C      -2.481551     -4.047819      1.921504
  C      -0.925784     -1.525485     -1.181586
  C      -3.107074     -3.795436      0.682278
  C      -3.155939     -4.933057      2.807762
  C      -4.324789     -4.360508      0.306974
  C       0.437363     -1.340837     -1.474196
  C      -1.900834     -0.937668     -2.007852
  C      -4.374569     -5.506121      2.447946
  C      -4.954123     -5.219673      1.201768
  C       0.807900     -0.569508     -2.568717
  C      -1.520867     -0.156023     -3.100412
  C      -0.170229      0.035011     -3.379646
  H      -0.235749      1.610325      2.892794
  H       2.705988      1.580779      2.051015
  H       1.343000      0.553455      4.590200
  H       2.633514     -1.118097      2.402984
  H       3.689693      3.311580     -0.726103
  H       1.972135      4.650836      0.644377
  H       2.220901      2.264844     -2.397360
  H       1.578293      5.118732     -3.292777
  H      -0.356320     -0.812531      2.911454
  H      -0.678465      2.573875      0.689833
  H       0.288574      3.652901      1.722882
  H      -0.212461      3.141516     -1.811233
  H      -1.837248      5.023895     -1.748915
  H      -1.462904      4.630270     -3.445491
  H      -0.718401      6.047454     -2.675984
  H       1.510967      2.907461      4.240948
  H       3.612302      1.345576      4.527621
  H       1.062362     -2.594185      3.713907
  H       2.738242      5.844640     -1.448914
  H       3.966387      4.238535     -3.314537
  H       1.625106      3.401449     -4.825621
  H      -4.762890     -4.140638     -0.658809
  H       1.211457     -1.774025     -0.855101
  H      -2.952523     -1.092979     -1.793913
  H      -4.878236     -6.179403      3.140792
  H      -2.267023      0.299657     -3.745347
  H      -3.153119     -5.811844      4.495596
  H      -6.471411     -6.347085      1.517230
  H       2.121375      0.123835     -3.705516
  H       0.163182      1.713277     -4.341577
73
Coordinates from ORCA-job Rutin E -2249.187803412329
  O       0.492017      0.336554      1.420357
  O       1.313974      2.754090      0.166791
  O       0.609037      4.755041     -0.849311
  O       2.176964      2.843069      3.535096
  O       3.433166      0.406975      4.321409
  O       0.535307     -1.929872      1.396049
  O       1.694987     -1.914743      4.065132
  O       3.416089      5.236305     -1.429272
  O       3.461675      3.389379     -3.502677
  O       0.741645      3.426181     -4.270859
  O      -2.526539     -2.940170     -0.263432
  O      -0.564164     -3.544460      3.265021
  O      -2.623871     -5.157285      3.994221
  O      -6.165377     -5.680698      0.782938
  O       2.188214     -0.403092     -2.848967
  O       0.393896      0.733718     -4.465820
  C       0.584539      1.555445      2.143596
  C       1.953920      1.613711      2.833792
  C       2.123681      0.424757      3.787359
  C       1.835901     -0.907701      3.089776
  C       2.867573      3.935117     -1.190680
  C       1.677381      4.041275     -0.227023
  C       2.426820      3.314940     -2.524325
  C       1.194503      4.050450     -3.065540
  C       0.551004     -0.808462      2.253082
  C       0.311765      2.702596      1.183821
  C       0.070853      4.117165     -2.031869
  C      -1.117960      4.950236     -2.484242
  C      -0.687348     -2.506897      1.154651
  C      -1.324435     -2.328494     -0.037504
  C      -1.198577     -3.387402      2.214692
  C      -2.491911     -4.013282      1.909912
  C      -0.886437     -1.516788     -1.187166
  C      -3.106545     -3.753973      0.666604
  C      -3.183943     -4.888360      2.792668
  C      -4.328389     -4.303272      0.283233
  C       0.481139     -1.349066     -1.469620
  C      -1.848329     -0.920038     -2.022392
  C      -4.407479     -5.445848      2.425066
  C      -4.974797     -5.153408      1.174510
  C       0.869161     -0.584263     -2.562778
  C      -1.450726     -0.144746     -3.113080
  C      -0.095877      0.029840     -3.382001
  H      -0.209958      1.595737      2.916541
  H       2.728153      1.580744      2.063324
  H       1.376318      0.530671      4.599596
  H       2.664865     -1.118292      2.393822
  H       3.669653      3.343918     -0.741299
  H       1.945080      4.664192      0.637179
  H       2.198670      2.253321     -2.382437
  H       1.494867      5.083698     -3.305620
  H      -0.324179     -0.823944      2.922276
  H      -0.673173      2.558618      0.723070
  H       0.296204      3.642880      1.748272
  H      -0.244838      3.096708     -1.777050
  H      -1.900532      4.949285     -1.719182
  H      -1.530736      4.550717     -3.415812
  H      -0.805634      5.985840     -2.661265
  H       1.535742      2.887754      4.265892
  H       3.642237      1.333297      4.533482
  H       1.107759     -2.613465      3.705919
  H       2.663411      5.852055     -1.476147
  H       3.897571      4.247877     -3.341310
  H       1.547664      3.349816     -4.817415
  H      -4.756937     -4.078397     -0.685677
  H       1.244758     -1.790615     -0.843729
  H      -2.903355     -1.062343     -1.816022
  H      -4.924582     -6.111727      3.115158
  H      -2.186208      0.318782     -3.764588
  H      -3.203950     -5.764817      4.481660
  H      -6.508506     -6.260992      1.480702
  H       2.197510      0.095575     -3.689820
  H       0.275321      1.702481     -4.335136
73
Coordinates from ORCA-job Rutin E -2249.187303496574
  O       0.465185      0.360595      1.423993
  O       1.310353      2.770265      0.174859
  O       0.662660      4.811825     -0.817189
  O       2.167656      2.857493      3.537068
  O       3.421026      0.412447      4.312182
  O       0.522452     -1.912546      1.385994
  O       1.696547     -1.906325      4.045382
  O       3.474405      5.174783     -1.459705
  O       3.399200      3.272377     -3.506738
  O       0.652183      3.447239     -4.232007
  O      -2.519564     -2.976736     -0.278873
  O      -0.582396     -3.505237      3.272671
  O      -2.622650     -5.136489      4.007609
  O      -6.138552     -5.741135      0.783663
  O       2.198720     -0.395369     -2.823410
  O       0.404061      0.679999     -4.505758
  C       0.567766      1.580094      2.149894
  C       1.939826      1.630269      2.833798
  C       2.109653      0.437858      3.782230
  C       1.820611     -0.890506      3.077996
  C       2.874666      3.901498     -1.201115
  C       1.709188      4.051344     -0.214780
  C       2.374643      3.293161     -2.516323
  C       1.170442      4.079069     -3.050790
  C       0.531133     -0.790942      2.248490
  C       0.309203      2.734651      1.192628
  C       0.072720      4.208950     -1.992145
  C      -1.079483      5.104319     -2.420896
  C      -0.695967     -2.501566      1.145364
  C      -1.326208     -2.344073     -0.053010
  C      -1.209881     -3.367581      2.215026
  C      -2.490916     -4.017197      1.909458
  C      -0.885852     -1.549689     -1.212945
  C      -3.099872     -3.782089      0.658531
  C      -3.178047     -4.888024      2.799736
  C      -4.313931     -4.349972      0.274583
  C       0.481828     -1.350183     -1.467793
  C      -1.843634     -0.995023     -2.082789
  C      -4.393043     -5.463817      2.431574
  C      -4.956015     -5.194882      1.174049
  C       0.876921     -0.596112     -2.567427
  C      -1.440707     -0.229758     -3.177545
  C      -0.084205     -0.021103     -3.420946
  H      -0.224795      1.626740      2.924256
  H       2.712077      1.594640      2.059747
  H       1.365383      0.541180      4.597576
  H       2.646353     -1.088169      2.374159
  H       3.656878      3.272347     -0.768711
  H       2.014374      4.654915      0.651358
  H       2.080375      2.255506     -2.344408
  H       1.502687      5.095028     -3.316038
  H      -0.342565     -0.818845      2.919150
  H      -0.676933      2.602738      0.730833
  H       0.308331      3.672350      1.761284
  H      -0.298208      3.206772     -1.737576
  H      -1.842674      5.147608     -1.637560
  H      -1.531841      4.721942     -3.340340
  H      -0.721833      6.123378     -2.607447
  H       1.528545      2.901699      4.269721
  H       3.633702      1.334638      4.537406
  H       1.102050     -2.602044      3.691251
  H       2.751513      5.825895     -1.489662
  H       3.902523      4.098151     -3.370882
  H       1.437610      3.276569     -4.786743
  H      -4.738134     -4.143134     -0.700153
  H       1.240372     -1.762747     -0.816033
  H      -2.899232     -1.158455     -1.898364
  H      -4.906878     -6.127091      3.126632
  H      -2.172760      0.200268     -3.855638
  H      -3.198345     -5.745468      4.498392
  H      -6.479227     -6.314700      1.488199
  H       2.233358      0.087800     -3.673260
  H       0.300869      1.652507     -4.376142
73
Coordinates from ORCA-job Rutin E -2249.187966200895
  O       0.482190      0.339280      1.423815
  O       1.321385      2.758086      0.172807
  O       0.623243      4.770155     -0.839763
  O       2.171018      2.849980      3.532027
  O       3.435730      0.413266      4.313106
  O       0.530927     -1.929370      1.397587
  O       1.714832     -1.910963      4.059050
  O       3.435028      5.227644     -1.428233
  O       3.456325      3.357728     -3.495572
  O       0.731960      3.449357     -4.269785
  O      -2.526457     -2.953590     -0.264129
  O      -0.577946     -3.536018      3.273227
  O      -2.628123     -5.158643      3.998854
  O      -6.162311     -5.698630      0.782871
  O       2.184119     -0.400807     -2.840079
  O       0.382828      0.705600     -4.483117
  C       0.578536      1.560755      2.144857
  C       1.949509      1.619932      2.831558
  C       2.124129      0.431143      3.783734
  C       1.837954     -0.901037      3.085295
  C       2.871763      3.933588     -1.189828
  C       1.686601      4.046393     -0.221525
  C       2.417154      3.320344     -2.520957
  C       1.195982      4.072862     -3.065049
  C       0.547171     -0.806098      2.255886
  C       0.312539      2.709041      1.182992
  C       0.075395      4.148452     -2.025864
  C      -1.105750      4.998320     -2.467928
  C      -0.692335     -2.507874      1.156720
  C      -1.327767     -2.333546     -0.036898
  C      -1.206803     -3.384530      2.218526
  C      -2.495499     -4.018552      1.912111
  C      -0.890689     -1.529406     -1.191187
  C      -3.108079     -3.764544      0.666864
  C      -3.186518     -4.892964      2.796006
  C      -4.327879     -4.317888      0.281859
  C       0.476360     -1.346232     -1.464613
  C      -1.853525     -0.953929     -2.040789
  C      -4.407959     -5.454425      2.427000
  C      -4.973595     -5.167098      1.174607
  C       0.864164     -0.588636     -2.563447
  C      -1.456918     -0.184537     -3.135046
  C      -0.101836      0.006112     -3.396392
  H      -0.215152      1.605535      2.918019
  H       2.722506      1.587343      2.059413
  H       1.379848      0.534858      4.599111
  H       2.663651     -1.102216      2.382483
  H       3.666893      3.329031     -0.745942
  H       1.960456      4.664151      0.644717
  H       2.162368      2.266561     -2.370697
  H       1.500780      5.103795     -3.306011
  H      -0.325707     -0.825964      2.927901
  H      -0.669164      2.566123      0.714987
  H       0.296594      3.647433      1.750387
  H      -0.256100      3.130500     -1.780538
  H      -1.882462      5.005513     -1.696862
  H      -1.528997      4.603310     -3.396335
  H      -0.785974      6.031742     -2.644440
  H       1.532257      2.892046      4.265093
  H       3.644673      1.337856      4.532139
  H       1.125076     -2.611751      3.707122
  H       2.691576      5.854614     -1.469490
  H       3.917821      4.204219     -3.342645
  H       1.534691      3.350467     -4.817035
  H      -4.754468     -4.096857     -0.688748
  H       1.239425     -1.773509     -0.828517
  H      -2.908412     -1.106877     -1.842396
  H      -4.924632     -6.120474      3.117264
  H      -2.193142      0.260472     -3.798752
  H      -3.206884     -5.767808      4.485790
  H      -6.505184     -6.277222      1.482190
  H       2.206223      0.086293     -3.687524
  H       0.270286      1.675990     -4.356242
73
Coordinates from ORCA-job Rutin E -2249.188045224756
  O       0.497034      0.339086      1.418336
  O       1.345168      2.766063      0.180799
  O       0.606352      4.755087     -0.844179
  O       2.183042      2.836258      3.543466
  O       3.432789      0.390747      4.324518
  O       0.533605     -1.930243      1.391463
  O       1.693051     -1.922645      4.057859
  O       3.412793      5.265853     -1.433912
  O       3.464494      3.402536     -3.501698
  O       0.740499      3.436711     -4.270742
  O      -2.528385     -2.944413     -0.267083
  O      -0.572043     -3.534571      3.265449
  O      -2.629897     -5.148674      3.997009
  O      -6.174540     -5.672155      0.789876
  O       2.193666     -0.406022     -2.840635
  O       0.398797      0.715590     -4.478767
  C       0.593413      1.557647      2.143764
  C       1.960832      1.609316      2.837821
  C       2.124200      0.417057      3.788133
  C       1.833418     -0.912587      3.086400
  C       2.871990      3.962349     -1.193726
  C       1.685993      4.057595     -0.224160
  C       2.429002      3.340218     -2.524901
  C       1.190908      4.066384     -3.065658
  C       0.549701     -0.807604      2.249441
  C       0.331984      2.710285      1.186595
  C       0.071000      4.113521     -2.024898
  C      -1.135469      4.927278     -2.466058
  C      -0.690115     -2.506436      1.150260
  C      -1.326309     -2.330158     -0.042487
  C      -1.205086     -3.379953      2.213703
  C      -2.497103     -4.008934      1.909978
  C      -0.886641     -1.525982     -1.195961
  C      -3.111559     -3.752298      0.666005
  C      -3.189875     -4.880460      2.795408
  C      -4.334990     -4.299910      0.284257
  C       0.481400     -1.349467     -1.468952
  C      -1.846670     -0.943133     -2.043683
  C      -4.414816     -5.436221      2.429463
  C      -4.982404     -5.146097      1.178620
  C       0.873128     -0.590002     -2.564783
  C      -1.445852     -0.172352     -3.135650
  C      -0.089768      0.012280     -3.396010
  H      -0.203722      1.601077      2.913556
  H       2.738178      1.575801      2.070071
  H       1.376194      0.523542      4.599777
  H       2.662316     -1.120549      2.389346
  H       3.677804      3.372500     -0.749341
  H       1.949756      4.686974      0.636932
  H       2.197967      2.280304     -2.377312
  H       1.471142      5.104786     -3.305243
  H      -0.327299     -0.823654      2.916133
  H      -0.648242      2.569317      0.715022
  H       0.313682      3.646056      1.758460
  H      -0.230660      3.087581     -1.773890
  H      -1.909687      4.914478     -1.692591
  H      -1.550441      4.516672     -3.391462
  H      -0.846019      5.968616     -2.647964
  H       1.541105      2.877840      4.273791
  H       3.645616      1.313862      4.546051
  H       1.096213     -2.614716      3.701663
  H       2.658613      5.879675     -1.477182
  H       3.904382      4.260910     -3.351766
  H       1.549204      3.341530     -4.810210
  H      -4.762968     -4.077029     -0.685324
  H       1.241309     -1.783443     -0.833699
  H      -2.902323     -1.090762     -1.845261
  H      -4.932815     -6.099875      3.121053
  H      -2.179611      0.279459     -3.797414
  H      -3.210331     -5.755240      4.485211
  H      -6.518261     -6.249257      1.490003
  H       2.214961      0.079858     -3.688550
  H       0.282897      1.686043     -4.348940
73
Coordinates from ORCA-job Rutin E -2249.188102107174
  O       0.516900      0.329532      1.424658
  O       1.361026      2.767188      0.196070
  O       0.565882      4.727354     -0.843215
  O       2.197345      2.824933      3.556933
  O       3.456155      0.379251      4.326334
  O       0.548382     -1.939765      1.394070
  O       1.721972     -1.936214      4.057429
  O       3.363118      5.306416     -1.439375
  O       3.452546      3.442901     -3.504270
  O       0.733304      3.423950     -4.275488
  O      -2.520245     -2.921466     -0.271442
  O      -0.580127     -3.536851      3.265506
  O      -2.657454     -5.128873      3.989476
  O      -6.202591     -5.602671      0.775012
  O       2.229116     -0.432924     -2.840065
  O       0.445089      0.694222     -4.486001
  C       0.611572      1.546802      2.152788
  C       1.979176      1.600066      2.846504
  C       2.146509      0.404743      3.792423
  C       1.856562     -0.923719      3.087763
  C       2.850864      3.991988     -1.197004
  C       1.666323      4.063135     -0.223472
  C       2.418809      3.360798     -2.527661
  C       1.163784      4.058910     -3.065634
  C       0.570301     -0.817897      2.254069
  C       0.345591      2.700860      1.198959
  C       0.046077      4.067753     -2.020780
  C      -1.190598      4.838508     -2.455199
  C      -0.680544     -2.504733      1.150792
  C      -1.312380     -2.320530     -0.043146
  C      -1.207528     -3.374670      2.211518
  C      -2.506248     -3.988141      1.904255
  C      -0.862943     -1.521159     -1.195723
  C      -3.115145     -3.722455      0.659475
  C      -3.211652     -4.851844      2.787239
  C      -4.344644     -4.253434      0.274447
  C       0.507032     -1.359604     -1.468535
  C      -1.816751     -0.929809     -2.044404
  C      -4.442943     -5.391439      2.418063
  C      -5.004469     -5.092465      1.166552
  C       0.906831     -0.604714     -2.564896
  C      -1.407989     -0.166646     -3.138437
  C      -0.049994      0.003852     -3.399031
  H      -0.184828      1.586932      2.923523
  H       2.756603      1.572380      2.078743
  H       1.399934      0.507256      4.605902
  H       2.683869     -1.127563      2.387612
  H       3.669983      3.419244     -0.754683
  H       1.917723      4.706323      0.631294
  H       2.207939      2.296652     -2.381015
  H       1.414155      5.106396     -3.298017
  H      -0.305310     -0.832765      2.922658
  H      -0.632859      2.555325      0.725085
  H       0.320969      3.634089      1.775008
  H      -0.219969      3.032372     -1.768255
  H      -1.958951      4.800199     -1.676748
  H      -1.597241      4.410032     -3.376257
  H      -0.940017      5.889050     -2.641794
  H       1.557149      2.859903      4.289118
  H       3.667753      1.302014      4.550473
  H       1.124465     -2.628674      3.702582
  H       2.596343      5.904423     -1.481441
  H       3.872844      4.311748     -3.358172
  H       1.543608      3.359052     -4.817170
  H      -4.767704     -4.023871     -0.695716
  H       1.261481     -1.803130     -0.833004
  H      -2.873929     -1.066634     -1.846395
  H      -4.970727     -6.049375      3.107721
  H      -2.137237      0.288948     -3.802658
  H      -3.246222     -5.729116      4.475484
  H      -6.554880     -6.176273      1.473762
  H       2.256283      0.051208     -3.688853
  H       0.328453      1.666610     -4.369746
73
Coordinates from ORCA-job Rutin E -2249.188143482246
  O       0.522438      0.332207      1.424789
  O       1.373371      2.775966      0.207776
  O       0.556344      4.721691     -0.844890
  O       2.202653      2.817455      3.569591
  O       3.460960      0.366013      4.327079
  O       0.547346     -1.938482      1.390446
  O       1.725203     -1.945874      4.048494
  O       3.355194      5.323541     -1.438392
  O       3.455643      3.463237     -3.503799
  O       0.737127      3.423017     -4.277312
  O      -2.520740     -2.921684     -0.275998
  O      -0.585743     -3.526345      3.265263
  O      -2.663922     -5.115596      3.991695
  O      -6.208973     -5.592724      0.777756
  O       2.233316     -0.428767     -2.836515
  O       0.449971      0.691914     -4.490877
  C       0.618844      1.547172      2.157091
  C       1.985704      1.596062      2.852803
  C       2.151251      0.396467      3.793468
  C       1.859242     -0.928791      3.083671
  C       2.848692      4.006733     -1.196312
  C       1.663759      4.072220     -0.222643
  C       2.422478      3.372705     -2.527876
  C       1.161255      4.059363     -3.065817
  C       0.572577     -0.817501      2.251769
  C       0.356318      2.707093      1.209160
  C       0.043955      4.053451     -2.020380
  C      -1.204651      4.805355     -2.453749
  C      -0.682027     -2.502346      1.146494
  C      -1.312523     -2.320626     -0.048629
  C      -1.210697     -3.368846      2.208984
  C      -2.509879     -3.981680      1.902939
  C      -0.861660     -1.524676     -1.202829
  C      -3.117795     -3.718682      0.657172
  C      -3.217213     -4.841211      2.788427
  C      -4.348347     -4.248501      0.273406
  C       0.508802     -1.359210     -1.471333
  C      -1.814463     -0.939201     -2.056825
  C      -4.449367     -5.379592      2.420500
  C      -5.010008     -5.083470      1.167936
  C       0.910389     -0.605262     -2.567539
  C      -1.403757     -0.177218     -3.150848
  C      -0.045308     -0.001555     -3.406322
  H      -0.178397      1.585652      2.927018
  H       2.764295      1.571686      2.086158
  H       1.404991      0.496913      4.607547
  H       2.685736     -1.130301      2.381907
  H       3.670233      3.438076     -0.753120
  H       1.909923      4.723430      0.627630
  H       2.220655      2.306512     -2.382073
  H       1.399326      5.109941     -3.296779
  H      -0.302606     -0.831473      2.920857
  H      -0.622814      2.568620      0.734718
  H       0.336402      3.636701      1.791434
  H      -0.206675      3.014480     -1.766757
  H      -1.967077      4.763859     -1.669607
  H      -1.612498      4.363567     -3.367990
  H      -0.968956      5.857306     -2.651271
  H       1.562817      2.847360      4.302304
  H       3.673702      1.286666      4.558489
  H       1.121405     -2.633119      3.694118
  H       2.586168      5.918301     -1.483631
  H       3.869691      4.335139     -3.359080
  H       1.549861      3.358900     -4.815421
  H      -4.770506     -4.021063     -0.697643
  H       1.261696     -1.798194     -0.831002
  H      -2.871929     -1.078846     -1.862491
  H      -4.978560     -6.034524      3.111948
  H      -2.131604      0.274597     -3.819180
  H      -3.253849     -5.713433      4.479263
  H      -6.562558     -6.163291      1.478332
  H       2.263685      0.053241     -3.686240
  H       0.327384      1.663380     -4.371663
73
Coordinates from ORCA-job Rutin E -2249.188162382998
  O       0.532236      0.335508      1.427381
  O       1.384727      2.785274      0.221994
  O       0.536286      4.708234     -0.847763
  O       2.216072      2.808146      3.583627
  O       3.473562      0.349230      4.325902
  O       0.547546     -1.935558      1.388669
  O       1.728421     -1.955264      4.043027
  O       3.335804      5.345776     -1.439623
  O       3.455168      3.488410     -3.503117
  O       0.739396      3.416019     -4.279253
  O      -2.522019     -2.910531     -0.279435
  O      -0.585707     -3.526529      3.258797
  O      -2.671726     -5.105135      3.987639
  O      -6.219269     -5.569130      0.774532
  O       2.243412     -0.427661     -2.832103
  O       0.463869      0.686655     -4.498149
  C       0.631439      1.547031      2.164751
  C       1.998667      1.590685      2.860277
  C       2.162817      0.386492      3.795247
  C       1.865054     -0.935432      3.081574
  C       2.840325      4.024679     -1.195849
  C       1.654456      4.081368     -0.222574
  C       2.423382      3.384207     -2.527500
  C       1.153345      4.053404     -3.065249
  C       0.578065     -0.816442      2.251832
  C       0.369484      2.713462      1.225003
  C       0.036107      4.026023     -2.020228
  C      -1.229025      4.749061     -2.453982
  C      -0.683276     -2.495308      1.143736
  C      -1.312118     -2.312781     -0.052241
  C      -1.215516     -3.358536      2.206914
  C      -2.515509     -3.969102      1.900169
  C      -0.857550     -1.520397     -1.207334
  C      -3.122563     -3.704121      0.654481
  C      -3.224774     -4.827929      2.784865
  C      -4.354906     -4.229864      0.270724
  C       0.513879     -1.352949     -1.470367
  C      -1.807797     -0.940976     -2.068496
  C      -4.458490     -5.362480      2.416832
  C      -5.018825     -5.063494      1.164775
  C       0.919312     -0.604424     -2.568608
  C      -1.393024     -0.183207     -3.163845
  C      -0.033736     -0.006395     -3.414186
  H      -0.165317      1.582735      2.935372
  H       2.777312      1.569399      2.093552
  H       1.418591      0.486303      4.611328
  H       2.690043     -1.138199      2.378373
  H       3.666594      3.464508     -0.750646
  H       1.892854      4.744167      0.621065
  H       2.236198      2.315074     -2.381398
  H       1.374956      5.108256     -3.293508
  H      -0.296527     -0.828220      2.921597
  H      -0.612469      2.583951      0.754054
  H       0.357275      3.638948      1.814389
  H      -0.190669      2.982352     -1.763296
  H      -1.982335      4.706499     -1.661085
  H      -1.638779      4.285221     -3.356321
  H      -1.013952      5.801501     -2.671146
  H       1.577801      2.832784      4.317889
  H       3.688590      1.267243      4.565354
  H       1.111488     -2.632593      3.692643
  H       2.562182      5.933963     -1.490897
  H       3.861166      4.363630     -3.356666
  H       1.556216      3.355648     -4.811755
  H      -4.776177     -4.000819     -0.700343
  H       1.264119     -1.786876     -0.823808
  H      -2.865829     -1.082045     -1.878652
  H      -4.989186     -6.016762      3.107747
  H      -2.117992      0.264514     -3.838051
  H      -3.263001     -5.702062      4.474701
  H      -6.574425     -6.138977      1.474897
  H       2.277670      0.050686     -3.683564
  H       0.332303      1.657052     -4.379071
73
Coordinates from ORCA-job Rutin E -2249.188178225575
  O       0.535726      0.337056      1.428754
  O       1.385602      2.787036      0.227942
  O       0.529550      4.704318     -0.845581
  O       2.217236      2.803164      3.594599
  O       3.476086      0.341681      4.328193
  O       0.550506     -1.933941      1.384672
  O       1.732709     -1.962750      4.036390
  O       3.330561      5.346235     -1.442387
  O       3.447825      3.489681     -3.504907
  O       0.731887      3.415867     -4.278993
  O      -2.516586     -2.912327     -0.285129
  O      -0.588263     -3.514915      3.259603
  O      -2.677149     -5.089201      3.990595
  O      -6.221552     -5.557648      0.774643
  O       2.249925     -0.418402     -2.829195
  O       0.470752      0.682530     -4.505219
  C       0.634512      1.546339      2.169775
  C       2.001332      1.588206      2.866611
  C       2.165451      0.380861      3.797498
  C       1.868300     -0.938717      3.079230
  C       2.835387      4.025303     -1.196791
  C       1.650756      4.082344     -0.221697
  C       2.417569      3.383446     -2.527758
  C       1.145946      4.051048     -3.063482
  C       0.581257     -0.817065      2.250260
  C       0.373315      2.716093      1.233777
  C       0.030100      4.019615     -2.017141
  C      -1.238207      4.737581     -2.449564
  C      -0.679782     -2.494123      1.139288
  C      -1.306812     -2.314324     -0.058075
  C      -1.212527     -3.356482      2.202867
  C      -2.514516     -3.963578      1.897953
  C      -0.851617     -1.523851     -1.214125
  C      -3.119501     -3.701890      0.650568
  C      -3.227640     -4.816064      2.785718
  C      -4.352826     -4.225774      0.267479
  C       0.519904     -1.350109     -1.472776
  C      -1.801594     -0.950893     -2.080058
  C      -4.462350     -5.348749      2.418369
  C      -5.020137     -5.053807      1.164175
  C       0.925650     -0.602089     -2.571266
  C      -1.386453     -0.193596     -3.175505
  C      -0.027153     -0.010868     -3.421492
  H      -0.162627      1.579687      2.940093
  H       2.780645      1.570024      2.100538
  H       1.420963      0.477835      4.613685
  H       2.693358     -1.138335      2.375208
  H       3.662415      3.466074     -0.751859
  H       1.889379      4.748446      0.619309
  H       2.232588      2.313950     -2.380641
  H       1.365915      5.106706     -3.289480
  H      -0.293285     -0.830115      2.920077
  H      -0.610745      2.592550      0.765649
  H       0.367019      3.639745      1.826335
  H      -0.191640      2.975038     -1.759494
  H      -1.986995      4.698693     -1.652184
  H      -1.651939      4.267055     -3.346599
  H      -1.026393      5.789077     -2.674453
  H       1.578907      2.823972      4.328926
  H       3.690478      1.258377      4.573116
  H       1.111565     -2.636170      3.685937
  H       2.557081      5.934431     -1.495381
  H       3.854576      4.364278     -3.356760
  H       1.547831      3.360333     -4.813250
  H      -4.772341     -3.999315     -0.704954
  H       1.270114     -1.777929     -0.822193
  H      -2.859590     -1.096422     -1.893588
  H      -4.995871     -5.998378      3.111489
  H      -2.110829      0.249355     -3.853501
  H      -3.270946     -5.681980      4.479656
  H      -6.579322     -6.123276      1.477095
  H       2.285845      0.060843     -3.680036
  H       0.336365      1.652108     -4.384956
73
Coordinates from ORCA-job Rutin E -2249.188180142087
  O       0.535653      0.336661      1.430319
  O       1.382730      2.785528      0.227641
  O       0.529028      4.703773     -0.845008
  O       2.216828      2.804208      3.595085
  O       3.478712      0.344092      4.326935
  O       0.551266     -1.934191      1.385455
  O       1.739773     -1.963092      4.035282
  O       3.330758      5.343019     -1.442164
  O       3.446616      3.486979     -3.504198
  O       0.730718      3.413827     -4.278637
  O      -2.515875     -2.911257     -0.285113
  O      -0.590055     -3.514053      3.260789
  O      -2.679788     -5.087066      3.990825
  O      -6.220760     -5.557799      0.771379
  O       2.249072     -0.414170     -2.828964
  O       0.469691      0.681541     -4.506782
  C       0.633976      1.546100      2.171180
  C       2.001321      1.589243      2.867026
  C       2.167594      0.381731      3.797385
  C       1.871661     -0.937937      3.078710
  C       2.834549      4.022620     -1.195991
  C       1.649614      4.080722     -0.221194
  C       2.416366      3.380366     -2.526742
  C       1.144856      4.048552     -3.062696
  C       0.583161     -0.817636      2.251443
  C       0.371660      2.715115      1.234576
  C       0.028782      4.019233     -2.016662
  C      -1.237903      4.739474     -2.450002
  C      -0.679742     -2.493062      1.140303
  C      -1.306249     -2.313226     -0.057407
  C      -1.214062     -3.354407      2.204089
  C      -2.515523     -3.961986      1.898086
  C      -0.851108     -1.523007     -1.213680
  C      -3.119358     -3.700847      0.650053
  C      -3.229170     -4.814581      2.785312
  C      -4.352078     -4.225284      0.265836
  C       0.520227     -1.347239     -1.471805
  C      -1.801488     -0.952443     -2.080833
  C      -4.463319     -5.347844      2.416878
  C      -5.019951     -5.053411      1.162037
  C       0.925081     -0.599714     -2.571062
  C      -1.387288     -0.195785     -3.177037
  C      -0.028197     -0.011170     -3.422477
  H      -0.162594      1.579128      2.942092
  H       2.779979      1.572036      2.100259
  H       1.423617      0.477374      4.614178
  H       2.696118     -1.135404      2.373413
  H       3.661137      3.463402     -0.750293
  H       1.888681      4.746476      0.619968
  H       2.231825      2.310941     -2.379009
  H       1.366473      5.103950     -3.288180
  H      -0.290357     -0.830884      2.922666
  H      -0.612705      2.591010      0.767168
  H       0.365090      3.639224      1.826454
  H      -0.194939      2.975253     -1.758387
  H      -1.987005      4.702690     -1.652806
  H      -1.652077      4.269321     -3.347003
  H      -1.023961      5.790511     -2.675095
  H       1.578819      2.824520      4.329706
  H       3.692076      1.260988      4.572037
  H       1.119948     -2.638031      3.685095
  H       2.557776      5.931813     -1.495655
  H       3.853717      4.361230     -3.354214
  H       1.547100      3.358151     -4.812266
  H      -4.770758     -3.999209     -0.707042
  H       1.271304     -1.772695     -0.820682
  H      -2.859323     -1.099450     -1.894652
  H      -4.997301     -5.997458      3.109650
  H      -2.112132      0.245269     -3.855770
  H      -3.273858     -5.679846      4.479551
  H      -6.579051     -6.123432      1.473566
  H       2.284124      0.064207     -3.680431
  H       0.336199      1.651235     -4.386892
73
Coordinates from ORCA-job Rutin E -2249.188187225621
  O       0.537029      0.337449      1.431759
  O       1.383421      2.785733      0.228959
  O       0.528001      4.702335     -0.844471
  O       2.219000      2.804027      3.596873
  O       3.480360      0.343557      4.327624
  O       0.551791     -1.933326      1.386057
  O       1.740355     -1.962929      4.036530
  O       3.329970      5.342147     -1.444580
  O       3.444439      3.486655     -3.505231
  O       0.728612      3.410964     -4.277763
  O      -2.515310     -2.908906     -0.285521
  O      -0.589711     -3.514889      3.259749
  O      -2.681082     -5.085830      3.989660
  O      -6.220704     -5.555655      0.768574
  O       2.249061     -0.410000     -2.829098
  O       0.470154      0.678908     -4.510209
  C       0.635384      1.546657      2.172961
  C       2.002934      1.589417      2.868455
  C       2.169122      0.381578      3.798454
  C       1.872627     -0.937966      3.079760
  C       2.834015      4.021954     -1.196579
  C       1.649555      4.080660     -0.221103
  C       2.415271      3.378182     -2.526558
  C       1.142540      4.045227     -3.061560
  C       0.584121     -0.817218      2.252521
  C       0.373222      2.715862      1.236648
  C       0.027187      4.015857     -2.014991
  C      -1.240199      4.734877     -2.448325
  C      -0.679477     -2.491475      1.140468
  C      -1.305630     -2.311080     -0.057362
  C      -1.214378     -3.353183      2.203766
  C      -2.516040     -3.960048      1.897392
  C      -0.850277     -1.521052     -1.213730
  C      -3.119337     -3.698530      0.649191
  C      -3.230043     -4.812933      2.784055
  C      -4.351889     -4.222887      0.264307
  C       0.520965     -1.343260     -1.470851
  C      -1.800765     -0.953364     -2.082769
  C      -4.464040     -5.346108      2.414972
  C      -5.020127     -5.051305      1.159970
  C       0.925290     -0.597169     -2.571329
  C      -1.387148     -0.197934     -3.180013
  C      -0.028167     -0.011908     -3.424724
  H      -0.160923      1.579484      2.944134
  H       2.781380      1.572196      2.101454
  H       1.425369      0.477304      4.615446
  H       2.697078     -1.135917      2.374580
  H       3.660983      3.463816     -0.750277
  H       1.888987      4.747535      0.619094
  H       2.232880      2.308533     -2.377842
  H       1.364037      5.100845     -3.286245
  H      -0.289262     -0.830183      2.923917
  H      -0.611553      2.592664      0.769792
  H       0.367252      3.639913      1.828678
  H      -0.195637      2.972166     -1.754908
  H      -1.988336      4.699416     -1.650145
  H      -1.655161      4.263010     -3.344032
  H      -1.026922      5.785651     -2.675276
  H       1.580856      2.824498      4.331379
  H       3.693963      1.260365      4.572849
  H       1.118336     -2.636374      3.687492
  H       2.557058      5.930967     -1.498710
  H       3.850683      4.361137     -3.353600
  H       1.544787      3.358589     -4.812096
  H      -4.770192     -3.996629     -0.708689
  H       1.272703     -1.766082     -0.818830
  H      -2.858482     -1.101907     -1.897253
  H      -4.998281     -5.995933      3.107340
  H      -2.112227      0.240738     -3.860014
  H      -3.275348     -5.678705      4.478031
  H      -6.579313     -6.121554      1.470385
  H       2.282970      0.066397     -3.681818
  H       0.337914      1.648869     -4.391177
73
Coordinates from ORCA-job Rutin E -2249.188182433337
  O       0.538018      0.337638      1.431947
  O       1.384457      2.785960      0.230231
  O       0.526871      4.700848     -0.844422
  O       2.219252      2.803109      3.598890
  O       3.480779      0.342205      4.328203
  O       0.552419     -1.933026      1.385122
  O       1.741440     -1.964364      4.035267
  O       3.329256      5.343104     -1.444154
  O       3.444968      3.488635     -3.504548
  O       0.729782      3.410120     -4.277724
  O      -2.515034     -2.908215     -0.285997
  O      -0.589350     -3.513755      3.259154
  O      -2.681285     -5.083675      3.989865
  O      -6.221303     -5.553222      0.769176
  O       2.248187     -0.404674     -2.828602
  O       0.468638      0.678308     -4.512757
  C       0.636132      1.546502      2.173725
  C       2.003524      1.588984      2.869595
  C       2.169629      0.380527      3.798852
  C       1.873410     -0.938617      3.079283
  C       2.833838      4.022727     -1.195958
  C       1.649159      4.080905     -0.220724
  C       2.415883      3.378408     -2.525911
  C       1.142483      4.044068     -3.060955
  C       0.584934     -0.817416      2.252147
  C       0.374212      2.716011      1.237795
  C       0.026946      4.013200     -2.014714
  C      -1.241514      4.730174     -2.448285
  C      -0.679010     -2.490860      1.139624
  C      -1.305228     -2.310432     -0.058164
  C      -1.214157     -3.352044      2.203237
  C      -2.515986     -3.958652      1.897201
  C      -0.850205     -1.520677     -1.214835
  C      -3.119269     -3.697314      0.648957
  C      -3.230197     -4.811016      2.784190
  C      -4.352064     -4.221281      0.264342
  C       0.520880     -1.339917     -1.470665
  C      -1.801027     -0.956132     -2.085638
  C      -4.464416     -5.343858      2.415355
  C      -5.020503     -5.049210      1.160314
  C       0.924562     -0.594502     -2.571837
  C      -1.388103     -0.201113     -3.183399
  C      -0.029287     -0.012416     -3.426997
  H      -0.160382      1.578951      2.944668
  H       2.782175      1.572309      2.102777
  H       1.425725      0.475681      4.615783
  H       2.697967     -1.135882      2.374035
  H       3.660956      3.465233     -0.749118
  H       1.887919      4.748593      0.619028
  H       2.235091      2.308505     -2.377082
  H       1.362853      5.100090     -3.284920
  H      -0.288445     -0.830608      2.923533
  H      -0.610616      2.593183      0.770922
  H       0.368308      3.639847      1.830176
  H      -0.194508      2.969364     -1.754110
  H      -1.989058      4.694956     -1.649528
  H      -1.656426      4.256524     -3.343070
  H      -1.029757      5.780933     -2.676705
  H       1.580747      2.823117      4.333091
  H       3.694187      1.258783      4.574441
  H       1.118882     -2.637267      3.686125
  H       2.556260      5.931763     -1.498747
  H       3.850608      4.363184     -3.351535
  H       1.546661      3.357891     -4.811015
  H      -4.770405     -3.995161     -0.708672
  H       1.273130     -1.759677     -0.817296
  H      -2.858586     -1.106812     -1.901047
  H      -4.998846     -5.993273      3.107962
  H      -2.113527      0.235084     -3.864613
  H      -3.275724     -5.676169      4.478487
  H      -6.580070     -6.118783      1.471178
  H       2.281622      0.070125     -3.682268
  H       0.337243      1.648370     -4.393070
73
Coordinates from ORCA-job Rutin E -2249.188185715959
  O       0.538089      0.338927      1.432538
  O       1.386736      2.787108      0.232155
  O       0.528115      4.700752     -0.844562
  O       2.219784      2.802800      3.600962
  O       3.480356      0.341077      4.329191
  O       0.551681     -1.931719      1.384574
  O       1.741182     -1.964894      4.034487
  O       3.331309      5.342994     -1.444295
  O       3.446741      3.488672     -3.503699
  O       0.732005      3.409030     -4.277341
  O      -2.515738     -2.908125     -0.286088
  O      -0.589418     -3.512418      3.258660
  O      -2.680263     -5.083399      3.989874
  O      -6.220606     -5.554842      0.769856
  O       2.244479     -0.396656     -2.828182
  O       0.463170      0.677396     -4.516566
  C       0.636623      1.547578      2.174724
  C       2.003870      1.589176      2.870930
  C       2.169341      0.380166      3.799548
  C       1.872957     -0.938518      3.079195
  C       2.835360      4.022960     -1.195328
  C       1.650577      4.081823     -0.220262
  C       2.417686      3.377947     -2.525050
  C       1.144133      4.043030     -3.060403
  C       0.584478     -0.816547      2.252242
  C       0.375833      2.717597      1.239078
  C       0.028447      4.012081     -2.014372
  C      -1.240486      4.728045     -2.448322
  C      -0.679703     -2.489745      1.139027
  C      -1.306193     -2.309449     -0.058669
  C      -1.214397     -3.351098      2.202755
  C      -2.515921     -3.958408      1.897097
  C      -0.852082     -1.519932     -1.215851
  C      -3.119528     -3.697392      0.648959
  C      -3.229515     -4.811062      2.784292
  C      -4.352151     -4.221981      0.264588
  C       0.518710     -1.334877     -1.470296
  C      -1.803628     -0.960195     -2.089048
  C      -4.463534     -5.344529      2.415688
  C      -5.019988     -5.050207      1.160742
  C       0.921130     -0.590324     -2.572483
  C      -1.391978     -0.205744     -3.187659
  C      -0.033512     -0.012847     -3.429936
  H      -0.160119      1.580194      2.945387
  H       2.782696      1.572590      2.104298
  H       1.425296      0.475117      4.616388
  H       2.697525     -1.135346      2.373830
  H       3.662148      3.465542     -0.747755
  H       1.889053      4.750356      0.618895
  H       2.237621      2.307947     -2.375763
  H       1.364021      5.099164     -3.284317
  H      -0.288904     -0.829903      2.923580
  H      -0.608899      2.595600      0.771766
  H       0.370358      3.641178      1.831871
  H      -0.192788      2.968382     -1.753053
  H      -1.987804      4.693209     -1.649334
  H      -1.655302      4.253210     -3.342521
  H      -1.029522      5.778742     -2.677769
  H       1.580876      2.822756      4.334809
  H       3.693979      1.257376      4.576265
  H       1.117519     -2.636916      3.685617
  H       2.558747      5.932156     -1.499426
  H       3.852300      4.363162     -3.350060
  H       1.549007      3.357320     -4.810471
  H      -4.770823     -3.996146     -0.708350
  H       1.271795     -1.750528     -0.815356
  H      -2.860904     -1.114166     -1.905643
  H      -4.997519     -5.994194      3.108405
  H      -2.118095      0.226673     -3.870518
  H      -3.274272     -5.676223      4.478617
  H      -6.578946     -6.120582      1.471929
  H       2.277035      0.075180     -3.683560
  H       0.335472      1.647795     -4.394911
73
Coordinates from ORCA-job Rutin E -2249.188183264986
  O       0.538464      0.339953      1.432787
  O       1.389892      2.788230      0.234060
  O       0.529068      4.699560     -0.844997
  O       2.220333      2.802270      3.602835
  O       3.479393      0.339818      4.330765
  O       0.551223     -1.930540      1.383531
  O       1.740103     -1.965489      4.033860
  O       3.332331      5.345212     -1.443235
  O       3.451017      3.491023     -3.501567
  O       0.737433      3.406821     -4.276898
  O      -2.516946     -2.907236     -0.285706
  O      -0.588356     -3.511988      3.257466
  O      -2.678011     -5.084212      3.989457
  O      -6.220629     -5.554896      0.771862
  O       2.238929     -0.386212     -2.828459
  O       0.454800      0.677284     -4.521244
  C       0.637324      1.548407      2.175321
  C       2.004229      1.589076      2.872180
  C       2.168708      0.379587      3.800340
  C       1.872319     -0.938664      3.079169
  C       2.837582      4.024825     -1.193754
  C       1.652097      4.082933     -0.219517
  C       2.421621      3.378685     -2.523417
  C       1.147431      4.041595     -3.059723
  C       0.584141     -0.815870      2.251963
  C       0.377608      2.718587      1.239591
  C       0.031154      4.009040     -2.014456
  C      -1.239158      4.721962     -2.449429
  C      -0.680168     -2.488708      1.138189
  C      -1.307451     -2.308017     -0.059078
  C      -1.213879     -3.350778      2.201856
  C      -2.515423     -3.958343      1.896990
  C      -0.854857     -1.518263     -1.216718
  C      -3.119946     -3.696947      0.649385
  C      -3.228176     -4.811457      2.784402
  C      -4.352776     -4.221544      0.265705
  C       0.515496     -1.328107     -1.469958
  C      -1.807523     -0.964016     -2.092247
  C      -4.462374     -5.344988      2.416458
  C      -5.019794     -5.050236      1.162052
  C       0.916004     -0.584293     -2.573310
  C      -1.397744     -0.210228     -3.192015
  C      -0.039839     -0.012280     -3.433188
  H      -0.159862      1.581277      2.945500
  H       2.783400      1.572444      2.105900
  H       1.424237      0.474399      4.616811
  H       2.697087     -1.135244      2.373956
  H       3.664557      3.468513     -0.745140
  H       1.889063      4.752468      0.619272
  H       2.243234      2.308420     -2.373973
  H       1.365428      5.098135     -3.283611
  H      -0.289471     -0.829456      2.922974
  H      -0.606570      2.596293      0.771193
  H       0.371312      3.642154      1.832399
  H      -0.188484      2.965186     -1.752363
  H      -1.987134      4.685357     -1.651144
  H      -1.651953      4.245897     -3.343926
  H      -1.030668      5.773147     -2.678900
  H       1.580743      2.822490      4.336075
  H       3.693198      1.255983      4.578197
  H       1.116326     -2.637142      3.684492
  H       2.559344      5.933751     -1.498869
  H       3.855079      4.366149     -3.347514
  H       1.555287      3.354985     -4.808700
  H      -4.772267     -3.995438     -0.706815
  H       1.269704     -1.739401     -0.813602
  H      -2.864379     -1.121872     -1.909881
  H      -4.995751     -5.995032      3.109287
  H      -2.124954      0.217811     -3.876432
  H      -3.271511     -5.677424      4.478347
  H      -6.578322     -6.121036      1.473941
  H       2.269909      0.081262     -3.686334
  H       0.333470      1.648266     -4.396852
73
Coordinates from ORCA-job Rutin E -2249.188186369166
  O       0.537198      0.342385      1.433599
  O       1.392384      2.790310      0.236602
  O       0.531767      4.700176     -0.845473
  O       2.221056      2.802468      3.604749
  O       3.478546      0.339053      4.331404
  O       0.549175     -1.927990      1.382490
  O       1.739199     -1.965410      4.032507
  O       3.335658      5.346035     -1.441566
  O       3.456769      3.489842     -3.497881
  O       0.744251      3.404376     -4.275904
  O      -2.519173     -2.907188     -0.285061
  O      -0.587755     -3.511027      3.256388
  O      -2.674837     -5.086034      3.989252
  O      -6.219046     -5.559642      0.773862
  O       2.230590     -0.373917     -2.828996
  O       0.442403      0.676299     -4.527519
  C       0.637268      1.550542      2.176579
  C       2.004172      1.589815      2.873431
  C       2.167938      0.379724      3.800837
  C       1.871093     -0.937854      3.078648
  C       2.840853      4.025835     -1.191209
  C       1.654363      4.084672     -0.218246
  C       2.426398      3.378316     -2.520663
  C       1.152697      4.040460     -3.058905
  C       0.582651     -0.813994      2.251971
  C       0.378922      2.721210      1.241004
  C       0.035364      4.008337     -2.014737
  C      -1.235014      4.720009     -2.451617
  C      -0.682020     -2.486805      1.137613
  C      -1.310214     -2.306439     -0.059307
  C      -1.214161     -3.349923      2.201278
  C      -2.515075     -3.959067      1.897131
  C      -0.859683     -1.516588     -1.217728
  C      -3.120696     -3.697920      0.650041
  C      -3.226138     -4.813432      2.784693
  C      -4.353140     -4.223863      0.266946
  C       0.510090     -1.320206     -1.469734
  C      -1.813829     -0.969309     -2.096082
  C      -4.459937     -5.348297      2.417343
  C      -5.018548     -5.053706      1.163434
  C       0.908190     -0.577332     -2.574558
  C      -1.406326     -0.216446     -3.197320
  C      -0.049193     -0.012181     -3.437270
  H      -0.159995      1.583967      2.946649
  H       2.783276      1.573142      2.107102
  H       1.423438      0.474299      4.617307
  H       2.695566     -1.133899      2.372924
  H       3.667383      3.470012     -0.741162
  H       1.890160      4.755083      0.620179
  H       2.247886      2.308132     -2.370520
  H       1.370262      5.096899     -3.283639
  H      -0.290833     -0.827986      2.923121
  H      -0.604917      2.599467      0.771782
  H       0.372871      3.644690      1.833954
  H      -0.184138      2.964614     -1.751939
  H      -1.984288      4.682597     -1.654600
  H      -1.645874      4.243383     -3.346721
  H      -1.027259      5.771358     -2.681010
  H       1.581272      2.822873      4.337814
  H       3.692773      1.255035      4.579164
  H       1.115375     -2.636862      3.682789
  H       2.562680      5.934472     -1.498271
  H       3.860343      4.365316     -3.344620
  H       1.562552      3.352052     -4.806913
  H      -4.773590     -3.997937     -0.705202
  H       1.265553     -1.726412     -0.811710
  H      -2.870135     -1.131931     -1.914875
  H      -4.992075     -5.999277      3.110246
  H      -2.134784      0.206201     -3.883722
  H      -3.267237     -5.680263      4.478242
  H      -6.575549     -6.126547      1.475930
  H       2.260042      0.088190     -3.689865
  H       0.330732      1.647938     -4.398862
73
Coordinates from ORCA-job Rutin E -2249.188193286525
  O       0.534769      0.345999      1.434756
  O       1.394817      2.793483      0.239972
  O       0.535398      4.701197     -0.846379
  O       2.222365      2.803097      3.606537
  O       3.477974      0.338508      4.331183
  O       0.546014     -1.924102      1.380801
  O       1.737846     -1.964578      4.030821
  O       3.339713      5.348541     -1.437462
  O       3.467227      3.488152     -3.490461
  O       0.756356      3.399203     -4.273904
  O      -2.522668     -2.907209     -0.283927
  O      -0.586090     -3.510972      3.254237
  O      -2.669723     -5.089390      3.988795
  O      -6.216674     -5.566968      0.776998
  O       2.216860     -0.356059     -2.831098
  O       0.421790      0.675459     -4.536961
  C       0.636849      1.553668      2.178343
  C       2.004034      1.591078      2.874574
  C       2.167237      0.380291      3.801009
  C       1.869361     -0.936409      3.077704
  C       2.845778      4.028184     -1.186071
  C       1.657032      4.087441     -0.215893
  C       2.434758      3.378058     -2.515281
  C       1.161796      4.038338     -3.057507
  C       0.580337     -0.811182      2.251902
  C       0.380001      2.724913      1.243033
  C       0.042226      4.007163     -2.015648
  C      -1.227820      4.716924     -2.456562
  C      -0.684807     -2.484071      1.136854
  C      -1.314594     -2.304186     -0.059442
  C      -1.214115     -3.349559      2.200155
  C      -2.514356     -3.960632      1.897285
  C      -0.867545     -1.513715     -1.218894
  C      -3.121791     -3.699685      0.651110
  C      -3.222865     -4.816908      2.785063
  C      -4.353689     -4.227560      0.268955
  C       0.501207     -1.308344     -1.469773
  C      -1.824226     -0.976374     -2.100738
  C      -4.456128     -5.353680      2.418696
  C      -5.016638     -5.059201      1.165600
  C       0.895350     -0.566729     -2.576865
  C      -1.420442     -0.224854     -3.204239
  C      -0.064609     -0.011524     -3.443100
  H      -0.160171      1.587878      2.948639
  H       2.782692      1.574298      2.107796
  H       1.423042      0.474635      4.617772
  H       2.693184     -1.132073      2.371081
  H       3.671880      3.473842     -0.733429
  H       1.890403      4.759022      0.622293
  H       2.256271      2.308020     -2.363874
  H       1.378750      5.094473     -3.284222
  H      -0.292840     -0.825840      2.923438
  H      -0.603410      2.603775      0.772793
  H       0.374114      3.648350      1.836070
  H      -0.176858      2.963613     -1.751743
  H      -1.979596      4.678679     -1.661964
  H      -1.635271      4.239325     -3.352717
  H      -1.020691      5.768375     -2.686037
  H       1.582749      2.823799      4.339743
  H       3.692911      1.254352      4.578868
  H       1.114530     -2.636251      3.680549
  H       2.566117      5.935941     -1.496473
  H       3.869417      4.364565     -3.339064
  H       1.575872      3.344808     -4.802771
  H      -4.775643     -4.001747     -0.702563
  H       1.258579     -1.707714     -0.809842
  H      -2.879614     -1.145871     -1.920664
  H      -4.986372     -6.006074      3.111719
  H      -2.150817      0.190199     -3.893180
  H      -3.260512     -5.685048      4.478000
  H      -6.571365     -6.135052      1.479031
  H       2.244001      0.097900     -3.696411
  H       0.326030      1.647914     -4.401414
73
Coordinates from ORCA-job Rutin E -2249.188191821941
  O       0.531050      0.352981      1.436564
  O       1.398786      2.800317      0.247108
  O       0.539961      4.702925     -0.847781
  O       2.225297      2.802979      3.611581
  O       3.478137      0.335671      4.329817
  O       0.540351     -1.916636      1.376435
  O       1.736371     -1.964726      4.025478
  O       3.344297      5.355049     -1.430245
  O       3.485144      3.485956     -3.476151
  O       0.777850      3.388963     -4.269709
  O      -2.528771     -2.907447     -0.282882
  O      -0.583449     -3.508914      3.250060
  O      -2.662048     -5.091324      3.989077
  O      -6.212433     -5.579611      0.782647
  O       2.193491     -0.326207     -2.835389
  O       0.387407      0.672600     -4.554366
  C       0.636662      1.559147      2.182202
  C       2.004491      1.592810      2.877257
  C       2.167014      0.379926      3.800808
  C       1.867044     -0.934594      3.074550
  C       2.853230      4.034063     -1.176232
  C       1.660363      4.093500     -0.211100
  C       2.448998      3.378012     -2.504578
  C       1.176952      4.033907     -3.054314
  C       0.576767     -0.806175      2.250822
  C       0.382405      2.732290      1.248534
  C       0.053249      4.003967     -2.016798
  C      -1.216473      4.709365     -2.465471
  C      -0.689951     -2.478386      1.134660
  C      -1.322361     -2.300236     -0.060707
  C      -1.214679     -3.346920      2.198005
  C      -2.513706     -3.961521      1.897594
  C      -0.880988     -1.509471     -1.222318
  C      -3.123930     -3.702176      0.652576
  C      -3.217966     -4.820392      2.786283
  C      -4.354661     -4.233956      0.272119
  C       0.485885     -1.288640     -1.470906
  C      -1.841666     -0.989594     -2.110528
  C      -4.450063     -5.361022      2.421717
  C      -5.013486     -5.068028      1.169547
  C       0.873595     -0.549479     -2.581974
  C      -1.443953     -0.240631     -3.217860
  C      -0.090412     -0.011743     -3.454455
  H      -0.159723      1.594026      2.953115
  H       2.782277      1.576733      2.109605
  H       1.423583      0.473113      4.618385
  H       2.689462     -1.129084      2.365925
  H       3.679171      3.483702     -0.718503
  H       1.888918      4.767938      0.626144
  H       2.271542      2.308147     -2.350204
  H       1.392610      5.089570     -3.284462
  H      -0.295571     -0.821983      2.923413
  H      -0.600652      2.613570      0.776956
  H       0.377666      3.655014      1.842751
  H      -0.164030      2.960680     -1.750383
  H      -1.972148      4.670876     -1.674608
  H      -1.618402      4.228670     -3.362479
  H      -1.010667      5.760696     -2.696653
  H       1.586414      2.823036      4.345449
  H       3.694424      1.251021      4.578209
  H       1.113537     -2.636262      3.673971
  H       2.569013      5.939688     -1.494348
  H       3.883877      4.364569     -3.328556
  H       1.599801      3.332108     -4.794433
  H      -4.778893     -4.009291     -0.698674
  H       1.246200     -1.675943     -0.807277
  H      -2.895371     -1.170834     -1.932496
  H      -4.977150     -6.015258      3.115406
  H      -2.177079      0.161345     -3.911546
  H      -3.250192     -5.688932      4.479101
  H      -6.564137     -6.149137      1.485018
  H       2.217246      0.113775     -3.708045
  H       0.320171      1.645751     -4.406854
73
Coordinates from ORCA-job Rutin E -2249.188197716717
  O       0.528424      0.358184      1.437682
  O       1.401508      2.806823      0.253752
  O       0.541171      4.703581     -0.849475
  O       2.227933      2.802269      3.615544
  O       3.480071      0.332728      4.326639
  O       0.536233     -1.910998      1.371942
  O       1.736919     -1.965388      4.020135
  O       3.344655      5.364573     -1.421821
  O       3.502213      3.487713     -3.461158
  O       0.798887      3.378325     -4.265789
  O      -2.533777     -2.907672     -0.282333
  O      -0.580482     -3.508440      3.245616
  O      -2.656118     -5.091853      3.989469
  O      -6.210509     -5.587187      0.788556
  O       2.173917     -0.303541     -2.840941
  O       0.358375      0.670268     -4.569095
  C       0.636687      1.562890      2.185362
  C       2.005355      1.593821      2.878896
  C       2.168254      0.378951      3.799542
  C       1.866304     -0.933719      3.070869
  C       2.858226      4.042190     -1.165929
  C       1.660860      4.099701     -0.206287
  C       2.462222      3.379992     -2.493616
  C       1.190271      4.029535     -3.051222
  C       0.574624     -0.802807      2.249319
  C       0.383903      2.737955      1.253754
  C       0.062062      3.999366     -2.018503
  C      -1.207843      4.699219     -2.475159
  C      -0.693719     -2.474229      1.132189
  C      -1.328528     -2.297353     -0.062273
  C      -1.214570     -3.345513      2.195442
  C      -2.513257     -3.961880      1.897676
  C      -0.891986     -1.506303     -1.225697
  C      -3.125969     -3.703668      0.653765
  C      -3.214410     -4.822142      2.787510
  C      -4.356224     -4.237852      0.275146
  C       0.473124     -1.273269     -1.473084
  C      -1.856044     -1.000303     -2.118530
  C      -4.446031     -5.365130      2.424895
  C      -5.011984     -5.073258      1.173575
  C       0.855422     -0.536259     -2.587560
  C      -1.463552     -0.253369     -3.228955
  C      -0.112001     -0.012286     -3.464390
  H      -0.158855      1.597701      2.957114
  H       2.782133      1.578916      2.110198
  H       1.426001      0.470801      4.618339
  H       2.687296     -1.127172      2.360261
  H       3.684622      3.496950     -0.702938
  H       1.883472      4.777110      0.630172
  H       2.287633      2.310047     -2.336406
  H       1.403353      5.085005     -3.284674
  H      -0.296762     -0.819709      2.923100
  H      -0.598821      2.621239      0.780981
  H       0.379542      3.659606      1.849717
  H      -0.152438      2.956117     -1.749772
  H      -1.966742      4.661299     -1.687358
  H      -1.604669      4.214122     -3.372064
  H      -1.004069      5.750286     -2.709303
  H       1.590288      2.820904      4.350530
  H       3.697442      1.247557      4.576038
  H       1.113900     -2.636616      3.668293
  H       2.566977      5.945411     -1.491325
  H       3.896354      4.368891     -3.316681
  H       1.624029      3.318920     -4.785147
  H      -4.782415     -4.013976     -0.694971
  H       1.235846     -1.651052     -0.806838
  H      -2.908233     -1.190871     -1.941640
  H      -4.970808     -6.020310      3.119442
  H      -2.198789      0.138344     -3.926208
  H      -3.242454     -5.690369      4.480554
  H      -6.560002     -6.157413      1.491465
  H       2.195311      0.125173     -3.719261
  H       0.315941      1.643323     -4.411480
73
Coordinates from ORCA-job Rutin E -2249.188194708983
  O       0.525402      0.364840      1.437836
  O       1.404134      2.817974      0.264194
  O       0.538716      4.703975     -0.852707
  O       2.231564      2.799813      3.621109
  O       3.484872      0.327013      4.318855
  O       0.530983     -1.903760      1.363325
  O       1.739525     -1.967956      4.009669
  O       3.338643      5.385453     -1.406564
  O       3.529690      3.495874     -3.434669
  O       0.833997      3.359924     -4.259053
  O      -2.541304     -2.908293     -0.282103
  O      -0.575178     -3.508166      3.237982
  O      -2.648200     -5.089769      3.991060
  O      -6.209802     -5.594704      0.799675
  O       2.147253     -0.279404     -2.852785
  O       0.318529      0.666916     -4.589369
  C       0.636763      1.566899      2.189347
  C       2.006966      1.594336      2.880183
  C       2.171643      0.375960      3.795575
  C       1.866677     -0.933775      3.063030
  C       2.863118      4.059611     -1.147881
  C       1.657749      4.110937     -0.198012
  C       2.483020      3.386359     -2.474461
  C       1.210348      4.022614     -3.045960
  C       0.572642     -0.799185      2.245202
  C       0.384912      2.745470      1.262071
  C       0.074093      3.990342     -2.021961
  C      -1.196586      4.679295     -2.492670
  C      -0.698702     -2.468939      1.127351
  C      -1.337368     -2.294134     -0.065565
  C      -1.214032     -3.343429      2.191008
  C      -2.512955     -3.961252      1.897945
  C      -0.907355     -1.503117     -1.231706
  C      -3.129525     -3.705016      0.655697
  C      -3.210054     -4.822299      2.790262
  C      -4.359658     -4.241909      0.280537
  C       0.455327     -1.256419     -1.479170
  C      -1.876022     -1.012993     -2.128820
  C      -4.441546     -5.367925      2.431288
  C      -5.011352     -5.078093      1.181190
  C       0.830563     -0.522054     -2.598018
  C      -1.490481     -0.268486     -3.243049
  C      -0.141488     -0.013745     -3.478588
  H      -0.157185      1.600288      2.962724
  H       2.781996      1.582296      2.109669
  H       1.431667      0.464998      4.616753
  H       2.685304     -1.125485      2.349168
  H       3.691344      3.525071     -0.675769
  H       1.868692      4.793395      0.637361
  H       2.315331      2.316013     -2.312503
  H       1.417660      5.078007     -3.285026
  H      -0.297000     -0.817750      2.921165
  H      -0.597206      2.631520      0.787331
  H       0.379997      3.664725      1.861870
  H      -0.134460      2.946936     -1.749422
  H      -1.960714      4.642456     -1.709865
  H      -1.584525      4.185857     -3.388885
  H      -0.997111      5.729929     -2.732372
  H       1.596665      2.814776      4.358557
  H       3.703716      1.240963      4.570208
  H       1.116312     -2.638768      3.657300
  H       2.555658      5.957930     -1.485459
  H       3.914016      4.382192     -3.295483
  H       1.664927      3.298326     -4.768778
  H      -4.788790     -4.019409     -0.688601
  H       1.221102     -1.623870     -0.810739
  H      -2.926192     -1.213974     -1.951957
  H      -4.963292     -6.023495      3.127741
  H      -2.228198      0.111948     -3.943841
  H      -3.232383     -5.688524      4.484424
  H      -6.556360     -6.165097      1.503901
  H       2.165984      0.135298     -3.737812
  H       0.313226      1.638562     -4.417341
73
Coordinates from ORCA-job Rutin E -2249.188210318361
  O       0.522286      0.371599      1.438896
  O       1.407212      2.827459      0.273758
  O       0.538553      4.704108     -0.855889
  O       2.234729      2.798348      3.626781
  O       3.488484      0.322586      4.313073
  O       0.525652     -1.896373      1.356413
  O       1.741756     -1.969594      4.000919
  O       3.336471      5.400651     -1.394238
  O       3.554147      3.500368     -3.411899
  O       0.865353      3.343930     -4.253144
  O      -2.548442     -2.908145     -0.281386
  O      -0.570574     -3.507910      3.231188
  O      -2.639747     -5.090295      3.991378
  O      -6.208117     -5.603166      0.808851
  O       2.120129     -0.250249     -2.861490
  O       0.279229      0.664232     -4.608630
  C       0.636783      1.571456      2.193543
  C       2.008216      1.595514      2.882143
  C       2.174108      0.374073      3.792934
  C       1.866550     -0.933002      3.056823
  C       2.868668      4.072617     -1.132598
  C       1.656538      4.120106     -0.191220
  C       2.501715      3.390115     -2.457984
  C       1.229225      4.015917     -3.041398
  C       0.570362     -0.795069      2.242467
  C       0.386315      2.752881      1.269592
  C       0.086050      3.982480     -2.025041
  C      -1.184910      4.662352     -2.507957
  C      -0.703698     -2.463438      1.123497
  C      -1.345941     -2.290013     -0.067930
  C      -1.213559     -3.341696      2.186995
  C      -2.512312     -3.961429      1.897927
  C      -0.922551     -1.498447     -1.236345
  C      -3.132624     -3.706388      0.657444
  C      -3.205167     -4.824150      2.791975
  C      -4.362441     -4.246042      0.285210
  C       0.437444     -1.236322     -1.482965
  C      -1.895432     -1.025869     -2.138679
  C      -4.436322     -5.372483      2.436061
  C      -5.009924     -5.083848      1.187389
  C       0.805499     -0.504654     -2.606120
  C      -1.516881     -0.283914     -3.256813
  C      -0.170817     -0.013755     -3.491573
  H      -0.155930      1.604071      2.968159
  H       2.781800      1.585803      2.110144
  H       1.436036      0.460704      4.616087
  H       2.683077     -1.122868      2.340012
  H       3.697574      3.546381     -0.652416
  H       1.857868      4.807038      0.642868
  H       2.338978      2.319649     -2.291816
  H       1.432186      5.071076     -3.285252
  H      -0.297731     -0.815194      2.920341
  H      -0.595291      2.641420      0.793202
  H       0.381431      3.670368      1.872212
  H      -0.118190      2.939168     -1.749003
  H      -1.953753      4.626381     -1.729727
  H      -1.564935      4.161822     -3.403611
  H      -0.988926      5.712529     -2.752485
  H       1.601792      2.810526      4.365966
  H       3.708602      1.235689      4.566414
  H       1.117834     -2.639725      3.648407
  H       2.549839      5.966936     -1.481230
  H       3.931286      4.390373     -3.276790
  H       1.701276      3.279043     -4.754171
  H      -4.794513     -4.024355     -0.682805
  H       1.206320     -1.591926     -0.811803
  H      -2.943347     -1.238726     -1.962765
  H      -4.954891     -6.029203      3.133794
  H      -2.257148      0.083543     -3.961750
  H      -3.221524     -5.690057      4.486359
  H      -6.551623     -6.174401      1.513891
  H       2.136120      0.149797     -3.753292
  H       0.309465      1.633497     -4.425296
73
Coordinates from ORCA-job Rutin E -2249.188213971849
  O       0.520172      0.376046      1.437004
  O       1.404760      2.840168      0.284943
  O       0.530460      4.704099     -0.863181
  O       2.233496      2.795754      3.632385
  O       3.497384      0.317943      4.297980
  O       0.521814     -1.891513      1.345272
  O       1.752821     -1.973573      3.985509
  O       3.324520      5.427309     -1.371761
  O       3.589204      3.514982     -3.374184
  O       0.914154      3.321919     -4.245205
  O      -2.557353     -2.909084     -0.280501
  O      -0.562163     -3.511955      3.220885
  O      -2.628094     -5.091376      3.992272
  O      -6.211029     -5.605901      0.826704
  O       2.090406     -0.233125     -2.879521
  O       0.234904      0.661119     -4.629536
  C       0.634762      1.573105      2.196336
  C       2.008212      1.596669      2.881518
  C       2.180337      0.370594      3.784625
  C       1.870935     -0.933733      3.044295
  C       2.869869      4.095483     -1.107369
  C       1.645771      4.133714     -0.181399
  C       2.526747      3.399785     -2.431696
  C       1.255420      4.007798     -3.035085
  C       0.570863     -0.793976      2.236094
  C       0.382210      2.758572      1.278244
  C       0.099162      3.971712     -2.033788
  C      -1.170401      4.638940     -2.537986
  C      -0.707867     -2.460597      1.117169
  C      -1.355677     -2.287327     -0.071480
  C      -1.210523     -3.343624      2.180339
  C      -2.510951     -3.962541      1.898136
  C      -0.939928     -1.494039     -1.241616
  C      -3.137288     -3.707483      0.660763
  C      -3.199221     -4.825445      2.795572
  C      -4.368642     -4.247748      0.294261
  C       0.417375     -1.222856     -1.492202
  C      -1.918143     -1.032083     -2.144147
  C      -4.431748     -5.374309      2.445426
  C      -5.011376     -5.085904      1.199508
  C       0.777729     -0.492913     -2.619436
  C      -1.547615     -0.292043     -3.265982
  C      -0.203930     -0.012806     -3.505115
  H      -0.156194      1.601236      2.972756
  H       2.779672      1.593215      2.107335
  H       1.446276      0.451792      4.611964
  H       2.684471     -1.119795      2.323077
  H       3.699251      3.582887     -0.613328
  H       1.829386      4.826076      0.652251
  H       2.373401      2.329164     -2.259994
  H       1.451511      5.062807     -3.285302
  H      -0.294203     -0.816277      2.917601
  H      -0.598619      2.648435      0.799958
  H       0.374685      3.672681      1.886141
  H      -0.101462      2.928766     -1.753786
  H      -1.946561      4.607700     -1.766757
  H      -1.538438      4.126294     -3.431661
  H      -0.978411      5.687827     -2.791192
  H       1.604345      2.800496      4.374854
  H       3.717457      1.229475      4.556872
  H       1.125343     -2.642006      3.635952
  H       2.532360      5.983757     -1.471469
  H       3.955785      4.409489     -3.239682
  H       1.759839      3.249959     -4.728704
  H      -4.805375     -4.026017     -0.671633
  H       1.190482     -1.572439     -0.822563
  H      -2.963965     -1.252950     -1.965663
  H      -4.946704     -6.031294      3.145549
  H      -2.290769      0.066810     -3.972228
  H      -3.207636     -5.690670      4.490385
  H      -6.551049     -6.177074      1.533476
  H       2.103025      0.157024     -3.775652
  H       0.306259      1.626776     -4.437007
73
Coordinates from ORCA-job Rutin E -2249.188227366121
  O       0.517750      0.384031      1.439297
  O       1.410792      2.847919      0.293810
  O       0.533467      4.703242     -0.864202
  O       2.238381      2.794145      3.639853
  O       3.498159      0.312702      4.297606
  O       0.516303     -1.882739      1.340014
  O       1.750707     -1.975079      3.979076
  O       3.325568      5.436291     -1.366985
  O       3.605604      3.514468     -3.360273
  O       0.933887      3.307924     -4.239455
  O      -2.562754     -2.907956     -0.280697
  O      -0.559704     -3.508006      3.215803
  O      -2.622077     -5.089515      3.992217
  O      -6.207213     -5.615123      0.830843
  O       2.066581     -0.199224     -2.882889
  O       0.202440      0.659670     -4.645919
  C       0.636453      1.578867      2.201455
  C       2.010353      1.597564      2.885740
  C       2.180926      0.368746      3.785179
  C       1.868916     -0.932639      3.040939
  C       2.876254      4.103315     -1.098539
  C       1.648897      4.140300     -0.176782
  C       2.540315      3.400180     -2.420883
  C       1.268405      4.000774     -3.031213
  C       0.567868     -0.788395      2.234685
  C       0.386991      2.766789      1.285747
  C       0.109293      3.963875     -2.033042
  C      -1.161711      4.622904     -2.544027
  C      -0.712773     -2.453372      1.114082
  C      -1.362791     -2.282330     -0.073892
  C      -1.211351     -3.338799      2.177482
  C      -2.510627     -3.960986      1.897585
  C      -0.952586     -1.489297     -1.246386
  C      -3.139169     -3.708027      0.661056
  C      -3.195271     -4.825789      2.796016
  C      -4.369339     -4.251853      0.296005
  C       0.401876     -1.200592     -1.493586
  C      -1.933491     -1.047081     -2.156161
  C      -4.426669     -5.378185      2.447478
  C      -5.008591     -5.091724      1.202122
  C       0.756151     -0.473405     -2.624523
  C      -1.568559     -0.309686     -3.281419
  C      -0.228231     -0.012835     -3.516953
  H      -0.153872      1.607605      2.978502
  H       2.781201      1.595135      2.110950
  H       1.447425      0.448543      4.613133
  H       2.681035     -1.117388      2.317722
  H       3.706496      3.596750     -0.599813
  H       1.827236      4.836882      0.654525
  H       2.390109      2.329523     -2.245236
  H       1.461052      5.055390     -3.285705
  H      -0.296526     -0.811814      2.917063
  H      -0.593670      2.660024      0.806331
  H       0.381286      3.679830      1.895360
  H      -0.086145      2.921017     -1.749213
  H      -1.940486      4.590643     -1.775509
  H      -1.524417      4.105091     -3.436936
  H      -0.973505      5.671549     -2.800992
  H       1.609948      2.797728      4.382951
  H       3.719891      1.223514      4.557680
  H       1.123635     -2.642857      3.627459
  H       2.530856      5.988090     -1.472030
  H       3.966598      4.412107     -3.231873
  H       1.781068      3.236930     -4.720284
  H      -4.807863     -4.031558     -0.669415
  H       1.176845     -1.536407     -0.819363
  H      -2.976867     -1.280786     -1.980340
  H      -4.939034     -6.036323      3.148428
  H      -2.313378      0.035195     -3.992785
  H      -3.199439     -5.690171      4.491250
  H      -6.544767     -6.187178      1.538090
  H       2.077574      0.174900     -3.785925
  H       0.303991      1.620867     -4.444691
73
Coordinates from ORCA-job Rutin E -2249.188235065134
  O       0.520999      0.389814      1.441596
  O       1.419455      2.854294      0.303047
  O       0.530489      4.696701     -0.865198
  O       2.243344      2.789625      3.652484
  O       3.500832      0.303970      4.300095
  O       0.514125     -1.876394      1.335177
  O       1.751744     -1.980349      3.972225
  O       3.319543      5.447151     -1.368014
  O       3.613947      3.520670     -3.353917
  O       0.944254      3.293848     -4.235956
  O      -2.565595     -2.903642     -0.282639
  O      -0.559040     -3.502621      3.211381
  O      -2.621093     -5.082944      3.991177
  O      -6.207868     -5.612124      0.832147
  O       2.053880     -0.169931     -2.880997
  O       0.187049      0.659908     -4.657433
  C       0.642005      1.582126      2.207327
  C       2.015240      1.596420      2.893053
  C       2.183826      0.363770      3.787571
  C       1.870251     -0.934317      3.038226
  C       2.878117      4.112348     -1.094993
  C       1.649535      4.145535     -0.174562
  C       2.548429      3.402101     -2.415310
  C       1.272662      3.991871     -3.028789
  C       0.568912     -0.785034      2.233334
  C       0.395301      2.772849      1.294552
  C       0.113334      3.948682     -2.031107
  C      -1.163309      4.593991     -2.545280
  C      -0.715397     -2.446302      1.110653
  C      -1.366358     -2.276277     -0.077132
  C      -1.212506     -3.332337      2.174370
  C      -2.511597     -3.955419      1.895891
  C      -0.958891     -1.484262     -1.251338
  C      -3.140990     -3.703519      0.659674
  C      -3.195109     -4.820288      2.795144
  C      -4.371060     -4.248133      0.295578
  C       0.393442     -1.180948     -1.493280
  C      -1.939985     -1.058764     -2.169070
  C      -4.426429     -5.373514      2.447618
  C      -5.009278     -5.087974      1.202451
  C       0.744977     -0.456165     -2.626539
  C      -1.577498     -0.323965     -3.296709
  C      -0.239665     -0.012340     -3.526702
  H      -0.148831      1.610329      2.983899
  H       2.787020      1.596764      2.119237
  H       1.450196      0.441215      4.615635
  H       2.681686     -1.116903      2.313651
  H       3.710909      3.612963     -0.593367
  H       1.822482      4.847860      0.653087
  H       2.405622      2.330789     -2.236339
  H       1.457572      5.047253     -3.285731
  H      -0.295188     -0.808599      2.916136
  H      -0.585634      2.669543      0.814932
  H       0.391839      3.684529      1.906336
  H      -0.072389      2.905231     -1.742981
  H      -1.941382      4.559285     -1.776174
  H      -1.522153      4.067793     -3.434858
  H      -0.984179      5.642622     -2.808680
  H       1.614292      2.790275      4.395069
  H       3.723373      1.213355      4.564425
  H       1.122877     -2.645655      3.619055
  H       2.521560      5.993421     -1.476935
  H       3.968032      4.421534     -3.228944
  H       1.791767      3.228401     -4.716808
  H      -4.810301     -4.028581     -0.669690
  H       1.168575     -1.504680     -0.813644
  H      -2.981513     -1.303038     -1.997315
  H      -4.938049     -6.031550      3.149218
  H      -2.322335      0.009038     -4.013674
  H      -3.197851     -5.683643      4.490876
  H      -6.544726     -6.184017      1.539861
  H       2.065657      0.191759     -3.789089
  H       0.302748      1.618495     -4.451389
73
Coordinates from ORCA-job Rutin E -2249.188248036839
  O       0.520039      0.399012      1.442458
  O       1.424417      2.869780      0.319815
  O       0.523394      4.690470     -0.873061
  O       2.246955      2.784279      3.665949
  O       3.509315      0.293885      4.289599
  O       0.507795     -1.865845      1.322086
  O       1.760672     -1.987138      3.953517
  O       3.305373      5.476522     -1.350899
  O       3.652138      3.534352     -3.315104
  O       0.997500      3.263166     -4.225936
  O      -2.577131     -2.899397     -0.281920
  O      -0.550823     -3.501794      3.198736
  O      -2.608020     -5.081510      3.990161
  O      -6.209102     -5.615351      0.848276
  O       2.013534     -0.124351     -2.892579
  O       0.131903      0.660836     -4.682333
  C       0.644129      1.586966      2.214515
  C       2.018697      1.596688      2.897863
  C       2.190405      0.357517      3.782448
  C       1.873880     -0.935487      3.025495
  C       2.881432      4.137524     -1.070803
  C       1.641903      4.160276     -0.165019
  C       2.577401      3.410040     -2.387599
  C       1.301170      3.976885     -3.021573
  C       0.568877     -0.780447      2.227277
  C       0.397977      2.782633      1.308215
  C       0.130355      3.927176     -2.037570
  C      -1.148018      4.551651     -2.572856
  C      -0.722033     -2.437197      1.103028
  C      -1.379214     -2.267608     -0.081752
  C      -1.211113     -3.328213      2.166603
  C      -2.510866     -3.952518      1.894983
  C      -0.981500     -1.474707     -1.258964
  C      -3.146761     -3.700890      0.662234
  C      -3.188268     -4.819286      2.797074
  C      -4.377537     -4.247557      0.303639
  C       0.365937     -1.148764     -1.499464
  C      -1.966963     -1.074052     -2.183670
  C      -4.420249     -5.374512      2.455187
  C      -5.009710     -5.089234      1.213046
  C       0.707928     -0.427301     -2.637828
  C      -1.613933     -0.342216     -3.315953
  C      -0.281256     -0.008288     -3.544591
  H      -0.145280      1.611925      2.992555
  H       2.789125      1.603739      2.122774
  H       1.459880      0.428779      4.613840
  H       2.681945     -1.112979      2.295825
  H       3.715951      3.655817     -0.554945
  H       1.795462      4.871517      0.658848
  H       2.446731      2.338443     -2.200733
  H       1.475103      5.032179     -3.286518
  H      -0.292379     -0.806405      2.913536
  H      -0.582111      2.682155      0.826275
  H       0.393429      3.690917      1.925238
  H      -0.045338      2.883877     -1.742796
  H      -1.933792      4.516052     -1.811632
  H      -1.491120      4.011506     -3.460259
  H      -0.978599      5.599502     -2.845627
  H       1.620498      2.777490      4.410682
  H       3.732636      1.201061      4.560748
  H       1.128749     -2.649814      3.600750
  H       2.500297      6.009149     -1.474394
  H       3.991263      4.441775     -3.196373
  H       1.853528      3.196031     -4.691084
  H      -4.821907     -4.028075     -0.659294
  H       1.144661     -1.455355     -0.816213
  H      -3.004481     -1.335289     -2.013380
  H      -4.927280     -6.033889      3.158849
  H      -2.361344     -0.027337     -4.038336
  H      -3.181487     -5.683128      4.492537
  H      -6.541535     -6.188227      1.557288
  H       2.024191      0.216511     -3.808549
  H       0.298271      1.609977     -4.466740
73
Coordinates from ORCA-job Rutin E -2249.187988435888
  O       0.532070      0.389631      1.421150
  O       1.401814      2.897317      0.345113
  O       0.461140      4.653740     -0.923323
  O       2.211358      2.755970      3.697701
  O       3.532067      0.267563      4.242702
  O       0.514248     -1.870072      1.268560
  O       1.825663     -2.032762      3.867635
  O       3.203455      5.577312     -1.290939
  O       3.769899      3.599094     -3.166687
  O       1.195199      3.179191     -4.212180
  O      -2.615295     -2.873623     -0.264886
  O      -0.506767     -3.511595      3.160900
  O      -2.548877     -5.091442      3.989310
  O      -6.236006     -5.572189      0.940169
  O       1.951919     -0.093598     -2.924985
  O       0.040078      0.716248     -4.679425
  C       0.637401      1.566010      2.212670
  C       2.010518      1.584627      2.898219
  C       2.208094      0.324231      3.747635
  C       1.906883     -0.957778      2.963665
  C       2.848974      4.223638     -0.988589
  C       1.567303      4.191936     -0.147072
  C       2.654205      3.441894     -2.292991
  C       1.391854      3.934310     -3.012379
  C       0.591006     -0.799886      2.188752
  C       0.367739      2.767157      1.320790
  C       0.167139      3.860469     -2.097325
  C      -1.096127      4.437590     -2.719452
  C      -0.722114     -2.436837      1.074669
  C      -1.408254     -2.251223     -0.091486
  C      -1.191916     -3.325301      2.147123
  C      -2.499905     -3.944050      1.901860
  C      -1.031128     -1.454223     -1.272468
  C      -3.166072     -3.677770      0.688129
  C      -3.158231     -4.814601      2.814261
  C      -4.409180     -4.213721      0.357920
  C       0.313648     -1.122718     -1.526826
  C      -2.026490     -1.041803     -2.180303
  C      -4.402774     -5.358728      2.500347
  C      -5.023021     -5.058382      1.277146
  C       0.644165     -0.391957     -2.659943
  C      -1.687591     -0.294984     -3.306989
  C      -0.356368      0.036654     -3.551656
  H      -0.153124      1.565695      2.989724
  H       2.783484      1.628240      2.127129
  H       1.483535      0.361101      4.586713
  H       2.709134     -1.104069      2.220616
  H       3.682459      3.807525     -0.416545
  H       1.636868      4.919143      0.673954
  H       2.561061      2.368170     -2.086793
  H       1.534641      4.989655     -3.296477
  H      -0.261570     -0.836210      2.885509
  H      -0.603553      2.640815      0.827313
  H       0.331024      3.667579      1.948132
  H      -0.003987      2.817052     -1.800546
  H      -1.929306      4.372586     -2.012543
  H      -1.356688      3.883544     -3.626430
  H      -0.950896      5.491234     -2.983838
  H       1.585936      2.714409      4.442001
  H       3.739434      1.165895      4.552480
  H       1.183961     -2.687728      3.519081
  H       2.373734      6.054715     -1.467578
  H       4.053781      4.526108     -3.053633
  H       2.082256      3.122553     -4.614858
  H      -4.878119     -3.982614     -0.590601
  H       1.102309     -1.430646     -0.856545
  H      -3.062633     -1.298741     -1.997287
  H      -4.895461     -6.021110      3.211411
  H      -2.445127      0.031572     -4.013794
  H      -3.113085     -5.693903      4.501249
  H      -6.554240     -6.147935      1.653315
  H       1.966920      0.246073     -3.838814
  H       0.271225      1.647851     -4.453266
73
Coordinates from ORCA-job Rutin E -2249.188348527190
  O       0.524108      0.407700      1.434617
  O       1.425143      2.904690      0.355566
  O       0.487901      4.666824     -0.901460
  O       2.236388      2.765323      3.698484
  O       3.531041      0.269988      4.255333
  O       0.503102     -1.854732      1.283762
  O       1.802247     -2.015477      3.890851
  O       3.238879      5.561055     -1.309711
  O       3.745691      3.579774     -3.204343
  O       1.143138      3.181811     -4.200404
  O      -2.606446     -2.883214     -0.275803
  O      -0.524915     -3.502946      3.167503
  O      -2.569902     -5.081648      3.987485
  O      -6.224289     -5.597248      0.904824
  O       1.940810     -0.065083     -2.925648
  O       0.023600      0.685512     -4.713735
  C       0.644634      1.585444      2.223312
  C       2.020293      1.592605      2.904650
  C       2.207376      0.335706      3.760631
  C       1.893507     -0.945628      2.981968
  C       2.870422      4.210849     -1.007385
  C       1.601649      4.195298     -0.144270
  C       2.643739      3.436375     -2.311746
  C       1.371341      3.938212     -3.006155
  C       0.578591     -0.782317      2.203325
  C       0.391104      2.791790      1.333158
  C       0.166140      3.869690     -2.065116
  C      -1.109293      4.444407     -2.661552
  C      -0.729552     -2.426400      1.080667
  C      -1.405592     -2.251020     -0.093233
  C      -1.202057     -3.321908      2.147454
  C      -2.506330     -3.944542      1.895082
  C      -1.027675     -1.455988     -1.275426
  C      -3.162224     -3.687205      0.674249
  C      -3.169415     -4.813925      2.805236
  C      -4.399651     -4.230826      0.334251
  C       0.312539     -1.103530     -1.522560
  C      -2.022434     -1.079087     -2.200196
  C      -4.407900     -5.365917      2.481949
  C      -5.017822     -5.074772      1.251172
  C       0.637967     -0.382545     -2.665169
  C      -1.687268     -0.344196     -3.335510
  C      -0.361898      0.014199     -3.571374
  H      -0.143423      1.595790      3.002848
  H       2.790253      1.624827      2.129821
  H       1.483616      0.383722      4.599721
  H       2.694176     -1.102074      2.239366
  H       3.708477      3.782553     -0.451478
  H       1.694834      4.925654      0.671783
  H       2.544262      2.365068     -2.104357
  H       1.515396      4.992086     -3.294035
  H      -0.274743     -0.815667      2.899015
  H      -0.584012      2.686534      0.842295
  H       0.373114      3.691157      1.963246
  H       0.007831      2.827128     -1.758484
  H      -1.924740      4.390579     -1.933361
  H      -1.396152      3.882353     -3.555413
  H      -0.964905      5.494345     -2.940630
  H       1.614135      2.732508      4.445972
  H       3.748589      1.170250      4.552615
  H       1.158694     -2.669315      3.542785
  H       2.413169      6.049855     -1.472602
  H       4.040365      4.504585     -3.102809
  H       2.020141      3.125149     -4.625353
  H      -4.860149     -4.006579     -0.619982
  H       1.099921     -1.392973     -0.842121
  H      -3.054549     -1.357452     -2.025275
  H      -4.904122     -6.027260      3.191454
  H      -2.442342     -0.044256     -4.056216
  H      -3.136071     -5.684026      4.497217
  H      -6.545955     -6.171923      1.617326
  H       1.954189      0.249164     -3.849714
  H       0.299011      1.605019     -4.482763
73
Coordinates from ORCA-job Rutin E -2249.188321355196
  O       0.529919      0.393455      1.438683
  O       1.430276      2.879243      0.333802
  O       0.494919      4.668486     -0.884323
  O       2.242834      2.772606      3.678716
  O       3.519560      0.282368      4.281338
  O       0.516141     -1.872821      1.311525
  O       1.785916     -2.005912      3.929830
  O       3.264195      5.513624     -1.346046
  O       3.669704      3.564825     -3.289498
  O       1.035569      3.233457     -4.223432
  O      -2.584268     -2.881391     -0.279264
  O      -0.545264     -3.501352      3.190959
  O      -2.601438     -5.081479      3.983974
  O      -6.227588     -5.576996      0.864737
  O       2.018892     -0.130996     -2.896719
  O       0.127227      0.682729     -4.676400
  C       0.648960      1.579055      2.216292
  C       2.022433      1.589922      2.900876
  C       2.199872      0.344452      3.775678
  C       1.888829     -0.945536      3.010560
  C       2.866220      4.168608     -1.057575
  C       1.619304      4.170734     -0.162092
  C       2.589399      3.424668     -2.370819
  C       1.308334      3.960529     -3.020360
  C       0.581072     -0.789382      2.219128
  C       0.398570      2.778703      1.315823
  C       0.129916      3.889206     -2.046849
  C      -1.158328      4.480258     -2.597165
  C      -0.717635     -2.437823      1.095322
  C      -1.380153     -2.258694     -0.085147
  C      -1.207346     -3.325883      2.159982
  C      -2.511259     -3.943622      1.893117
  C      -0.982654     -1.466056     -1.261509
  C      -3.153303     -3.682772      0.665429
  C      -3.188173     -4.809495      2.796229
  C      -4.390356     -4.219556      0.313149
  C       0.366174     -1.146577     -1.506429
  C      -1.967227     -1.056864     -2.182424
  C      -4.426166     -5.355118      2.460294
  C      -5.022120     -5.060494      1.223576
  C       0.709685     -0.424492     -2.642588
  C      -1.614224     -0.320146     -3.311708
  C      -0.280565      0.007567     -3.544617
  H      -0.141676      1.597457      2.993335
  H       2.794191      1.606675      2.127111
  H       1.469880      0.406164      4.608384
  H       2.695707     -1.112940      2.277319
  H       3.705688      3.708057     -0.530388
  H       1.748239      4.891886      0.657402
  H       2.475054      2.352522     -2.179562
  H       1.459498      5.018232     -3.289672
  H      -0.277901     -0.817912      2.908040
  H      -0.578612      2.671940      0.829556
  H       0.386140      3.683636      1.937777
  H      -0.028031      2.844380     -1.747488
  H      -1.952365      4.423866     -1.846000
  H      -1.476135      3.930183     -3.488112
  H      -1.013771      5.531762     -2.870094
  H       1.614588      2.756802      4.421750
  H       3.737611      1.186665      4.565797
  H       1.143485     -2.661019      3.582073
  H       2.449019      6.027755     -1.480896
  H       3.988161      4.480037     -3.173694
  H       1.896455      3.189670     -4.682061
  H      -4.840073     -3.993302     -0.645728
  H       1.146839     -1.457603     -0.827268
  H      -3.006022     -1.312199     -2.010671
  H      -4.932719     -6.014398      3.164406
  H      -2.364336      0.002692     -4.027700
  H      -3.174862     -5.682682      4.486902
  H      -6.558969     -6.150756      1.573519
  H       2.037619      0.212047     -3.810600
  H       0.327137      1.623243     -4.451888
73
Coordinates from ORCA-job Rutin E -2249.188438861675
  O       0.532467      0.410564      1.436919
  O       1.439439      2.916133      0.374153
  O       0.467137      4.640163     -0.907551
  O       2.246939      2.755173      3.712722
  O       3.542115      0.256880      4.253404
  O       0.506135     -1.852906      1.278263
  O       1.816407     -2.028827      3.874664
  O       3.207765      5.589957     -1.312745
  O       3.754104      3.610132     -3.194237
  O       1.170071      3.159443     -4.197969
  O      -2.612334     -2.862960     -0.275890
  O      -0.526635     -3.495265      3.161963
  O      -2.571607     -5.076089      3.979591
  O      -6.237339     -5.566557      0.906140
  O       1.938417     -0.046108     -2.923733
  O       0.010658      0.702696     -4.718656
  C       0.654923      1.584902      2.231045
  C       2.030629      1.587337      2.911660
  C       2.218053      0.325377      3.760149
  C       1.903710     -0.951512      2.974134
  C       2.860843      4.235763     -1.002629
  C       1.589444      4.203874     -0.143163
  C       2.652899      3.450309     -2.303562
  C       1.372884      3.922013     -3.003351
  C       0.586932     -0.782854      2.200590
  C       0.401770      2.796362      1.347436
  C       0.168656      3.823915     -2.063994
  C      -1.123818      4.353593     -2.664797
  C      -0.730247     -2.417473      1.076088
  C      -1.408131     -2.235857     -0.095920
  C      -1.203982     -3.312762      2.142039
  C      -2.510335     -3.931445      1.891168
  C      -1.030118     -1.442643     -1.278207
  C      -3.168489     -3.667735      0.672969
  C      -3.173939     -4.801288      2.800359
  C      -4.409165     -4.205140      0.334849
  C       0.309075     -1.083580     -1.524124
  C      -2.022659     -1.075442     -2.208581
  C      -4.415482     -5.347507      2.478764
  C      -5.027878     -5.049768      1.250814
  C       0.634012     -0.365419     -2.667843
  C      -1.688627     -0.341194     -3.344785
  C      -0.365590      0.027069     -3.578006
  H      -0.133132      1.592270      3.010734
  H       2.800113      1.623981      2.136580
  H       1.494998      0.368590      4.600130
  H       2.702685     -1.102092      2.228559
  H       3.703881      3.825010     -0.441074
  H       1.664767      4.946115      0.664091
  H       2.570443      2.378718     -2.092577
  H       1.490479      4.979024     -3.291682
  H      -0.264472     -0.817096      2.898485
  H      -0.572358      2.691826      0.854727
  H       0.382722      3.692391      1.982421
  H       0.041360      2.779985     -1.747634
  H      -1.938078      4.279402     -1.937240
  H      -1.392754      3.775182     -3.554061
  H      -1.011779      5.404771     -2.953888
  H       1.623280      2.718645      4.458844
  H       3.758832      1.154813      4.558219
  H       1.162750     -2.674347      3.529750
  H       2.374564      6.062910     -1.483801
  H       4.029978      4.541227     -3.097281
  H       2.052279      3.119743     -4.614375
  H      -4.871762     -3.976404     -0.617288
  H       1.097669     -1.366188     -0.842009
  H      -3.053909     -1.359576     -2.037698
  H      -4.912079     -6.009603      3.187311
  H      -2.445326     -0.047094     -4.066031
  H      -3.137870     -5.679382      4.488115
  H      -6.558871     -6.142816      1.617426
  H       1.960668      0.255035     -3.851242
  H       0.327509      1.607537     -4.482052
73
Coordinates from ORCA-job Rutin E -2249.188455203057
  O       0.530652      0.422096      1.433295
  O       1.441722      2.941374      0.399756
  O       0.451601      4.619829     -0.927915
  O       2.245652      2.745585      3.730744
  O       3.554448      0.244524      4.231387
  O       0.498805     -1.839913      1.254727
  O       1.837212     -2.042197      3.834047
  O       3.172052      5.637542     -1.290131
  O       3.815647      3.639199     -3.123138
  O       1.272435      3.106464     -4.177145
  O      -2.633478     -2.850922     -0.271961
  O      -0.512684     -3.491092      3.141645
  O      -2.546086     -5.077327      3.975511
  O      -6.241373     -5.565379      0.937338
  O       1.879783      0.007661     -2.944198
  O      -0.079516      0.732000     -4.738077
  C       0.654371      1.589170      2.238070
  C       2.031860      1.587300      2.915313
  C       2.227372      0.315260      3.746603
  C       1.912317     -0.953096      2.946842
  C       2.856875      4.279569     -0.963715
  C       1.567736      4.225509     -0.132247
  C       2.698909      3.466681     -2.254193
  C       1.423860      3.893421     -2.990890
  C       0.589149     -0.778161      2.185883
  C       0.398771      2.808012      1.365406
  C       0.201223      3.777599     -2.077567
  C      -1.090967      4.262951     -2.715402
  C      -0.739130     -2.405193      1.062218
  C      -1.428792     -2.221136     -0.102923
  C      -1.200880     -3.305067      2.129492
  C      -2.508135     -3.925929      1.890109
  C      -1.065482     -1.425665     -1.287942
  C      -3.178865     -3.659601      0.679507
  C      -3.160586     -4.800139      2.803143
  C      -4.421763     -4.198514      0.352042
  C       0.266951     -1.044667     -1.539244
  C      -2.064948     -1.077110     -2.218085
  C      -4.404219     -5.347819      2.492254
  C      -5.029481     -5.047336      1.271492
  C       0.577839     -0.324943     -2.685626
  C      -1.745826     -0.339574     -3.356130
  C      -0.429967      0.051349     -3.594465
  H      -0.131960      1.588500      3.019409
  H       2.799022      1.636965      2.138790
  H       1.509075      0.345445      4.591286
  H       2.706115     -1.091049      2.193299
  H       3.698300      3.902648     -0.376566
  H       1.604786      4.980718      0.665535
  H       2.636161      2.396878     -2.028018
  H       1.519490      4.948610     -3.293780
  H      -0.256585     -0.817271      2.890305
  H      -0.572319      2.703268      0.866867
  H       0.372866      3.698295      2.008405
  H       0.093699      2.736053     -1.746703
  H      -1.919423      4.177178     -2.005409
  H      -1.324575      3.664460     -3.601541
  H      -1.000799      5.312466     -3.018035
  H       1.624486      2.696403      4.478190
  H       3.769191      1.138324      4.549419
  H       1.175422     -2.681107      3.492210
  H       2.329494      6.082279     -1.489019
  H       4.063424      4.579404     -3.038855
  H       2.168430      3.072550     -4.563425
  H      -4.894584     -3.967716     -0.594556
  H       1.063029     -1.314212     -0.860584
  H      -3.091348     -1.376637     -2.044856
  H      -4.892442     -6.013105      3.203617
  H      -2.509337     -0.057572     -4.074899
  H      -3.106060     -5.683402      4.487678
  H      -6.554582     -6.144591      1.649929
  H       1.906628      0.286650     -3.877643
  H       0.325032      1.601156     -4.501282
73
Coordinates from ORCA-job Rutin E -2249.188509715849
  O       0.532992      0.421733      1.432766
  O       1.445736      2.941886      0.401318
  O       0.448506      4.613841     -0.928716
  O       2.246696      2.743417      3.733600
  O       3.554289      0.242481      4.234192
  O       0.500585     -1.841197      1.254700
  O       1.839042     -2.045152      3.831461
  O       3.171112      5.638388     -1.293495
  O       3.811110      3.646172     -3.130773
  O       1.269113      3.109323     -4.181834
  O      -2.632859     -2.848249     -0.273218
  O      -0.515429     -3.487486      3.142784
  O      -2.549579     -5.074099      3.974689
  O      -6.244055     -5.558582      0.934967
  O       1.886460      0.008326     -2.937928
  O      -0.075238      0.742988     -4.732095
  C       0.656383      1.588443      2.238313
  C       2.033206      1.585832      2.917137
  C       2.227778      0.313285      3.747932
  C       1.913916     -0.954154      2.946405
  C       2.855629      4.280191     -0.968073
  C       1.567308      4.225175     -0.134701
  C       2.696736      3.469101     -2.259779
  C       1.418687      3.892529     -2.992709
  C       0.591014     -0.778760      2.185147
  C       0.402252      2.808295      1.366423
  C       0.199592      3.767559     -2.076075
  C      -1.099068      4.240278     -2.709888
  C      -0.738296     -2.404843      1.061340
  C      -1.426992     -2.220522     -0.104229
  C      -1.202308     -3.302451      2.129493
  C      -2.509657     -3.922759      1.889317
  C      -1.061945     -1.425871     -1.288729
  C      -3.179501     -3.655953      0.678264
  C      -3.163319     -4.796327      2.802057
  C      -4.422885     -4.193500      0.350391
  C       0.270872     -1.046397     -1.539421
  C      -2.060314     -1.073743     -2.218484
  C      -4.407347     -5.342824      2.490639
  C      -5.031787     -5.041702      1.269629
  C       0.583329     -0.324129     -2.683764
  C      -1.739959     -0.334016     -3.354677
  C      -0.423715      0.056954     -3.591929
  H      -0.131032      1.587313      3.018560
  H       2.800894      1.635794      2.141212
  H       1.508531      0.342965      4.591813
  H       2.708406     -1.090505      2.193316
  H       3.697560      3.902672     -0.382067
  H       1.604118      4.982446      0.661174
  H       2.637326      2.399006     -2.034331
  H       1.507726      4.949448     -3.291643
  H      -0.254698     -0.817557      2.889599
  H      -0.568746      2.704735      0.867459
  H       0.376676      3.698115      2.010091
  H       0.101881      2.726105     -1.742124
  H      -1.923120      4.152989     -1.994984
  H      -1.333448      3.634420     -3.590803
  H      -1.018035      5.288486     -3.019643
  H       1.623312      2.695002      4.479256
  H       3.768310      1.136135      4.553140
  H       1.174474     -2.681545      3.490289
  H       2.328982      6.084126     -1.491803
  H       4.058050      4.586309     -3.042698
  H       2.165309      3.079453     -4.568265
  H      -4.895131     -3.962506     -0.596440
  H       1.066961     -1.317817     -0.861460
  H      -3.087358     -1.371932     -2.046596
  H      -4.896513     -6.007640      3.201788
  H      -2.503873     -0.049150     -4.071879
  H      -3.110119     -5.680060      4.486365
  H      -6.558011     -6.137622      1.647364
  H       1.918463      0.290377     -3.870084
  H       0.330717      1.610859     -4.493454
73
Coordinates from ORCA-job Rutin E -2249.188562940011
  O       0.528289      0.427644      1.428466
  O       1.450614      2.950964      0.407252
  O       0.452925      4.607727     -0.941431
  O       2.240751      2.743075      3.737765
  O       3.549629      0.243096      4.230897
  O       0.495559     -1.836057      1.246256
  O       1.844062     -2.048035      3.813975
  O       3.176839      5.646135     -1.289351
  O       3.837006      3.651476     -3.112324
  O       1.308997      3.089068     -4.178672
  O      -2.643312     -2.846424     -0.270738
  O      -0.512977     -3.482714      3.137494
  O      -2.536358     -5.080661      3.972198
  O      -6.239834     -5.573037      0.944828
  O       1.860113      0.035659     -2.934980
  O      -0.127920      0.786601     -4.720440
  C       0.651909      1.592875      2.236620
  C       2.028050      1.588287      2.917250
  C       2.223490      0.313037      3.743539
  C       1.912839     -0.951020      2.935723
  C       2.862859      4.288700     -0.959209
  C       1.567387      4.232212     -0.136013
  C       2.718054      3.470330     -2.248203
  C       1.441707      3.879053     -2.991811
  C       0.587919     -0.774870      2.178003
  C       0.402082      2.815135      1.366437
  C       0.218450      3.746796     -2.081909
  C      -1.083114      4.195254     -2.726796
  C      -0.743894     -2.401142      1.056294
  C      -1.437649     -2.216446     -0.106132
  C      -1.202798     -3.299866      2.125687
  C      -2.508467     -3.924787      1.889096
  C      -1.079687     -1.418636     -1.289630
  C      -3.183544     -3.658015      0.680913
  C      -3.155422     -4.802693      2.802405
  C      -4.426220     -4.199519      0.356615
  C       0.249985     -1.032352     -1.544945
  C      -2.082078     -1.064595     -2.214080
  C      -4.398437     -5.353402      2.494351
  C      -5.028399     -5.052028      1.276295
  C       0.556070     -0.301779     -2.685721
  C      -1.769511     -0.315033     -3.345405
  C      -0.456086      0.085494     -3.586453
  H      -0.137191      1.590630      3.015049
  H       2.795807      1.641389      2.141644
  H       1.503553      0.338232      4.586972
  H       2.706838     -1.080184      2.180871
  H       3.700888      3.917738     -0.363554
  H       1.593467      4.994679      0.655303
  H       2.664406      2.401603     -2.015889
  H       1.521426      4.935700     -3.294366
  H      -0.255763     -0.815383      2.884751
  H      -0.566041      2.712515      0.861640
  H       0.372509      3.703805      2.011518
  H       0.132109      2.708604     -1.735976
  H      -1.908049      4.111389     -2.012511
  H      -1.309370      3.571147     -3.596996
  H      -1.013086      5.238779     -3.054654
  H       1.613305      2.694695      4.480009
  H       3.761270      1.136316      4.552705
  H       1.173639     -2.679862      3.475770
  H       2.335654      6.088686     -1.498339
  H       4.078086      4.593082     -3.022911
  H       2.208076      3.066332     -4.558879
  H      -4.903078     -3.968730     -0.587955
  H       1.051675     -1.304041     -0.873605
  H      -3.107721     -1.367052     -2.041189
  H      -4.882445     -6.021613      3.205839
  H      -2.539194     -0.027003     -4.055093
  H      -3.092362     -5.690508      4.484215
  H      -6.548625     -6.155307      1.656840
  H       1.903726      0.315528     -3.866384
  H       0.332318      1.627225     -4.483340
73
Coordinates from ORCA-job Rutin E -2249.188599094998
  O       0.523417      0.432414      1.425241
  O       1.453443      2.957001      0.409632
  O       0.460250      4.605413     -0.952971
  O       2.233880      2.745422      3.738838
  O       3.543357      0.246494      4.229789
  O       0.489778     -1.830870      1.240483
  O       1.845136     -2.046930      3.804344
  O       3.182943      5.650806     -1.285842
  O       3.862088      3.651589     -3.095157
  O       1.344822      3.070904     -4.174798
  O      -2.651895     -2.847002     -0.267364
  O      -0.508639     -3.483948      3.132619
  O      -2.522958     -5.091186      3.969645
  O      -6.233205     -5.591905      0.951947
  O       1.833010      0.057355     -2.935408
  O      -0.177626      0.821433     -4.709239
  C       0.647096      1.597312      2.234037
  C       2.022399      1.591849      2.916354
  C       2.217865      0.315312      3.740413
  C       1.909840     -0.947247      2.929237
  C       2.870944      4.293942     -0.951428
  C       1.569505      4.236662     -0.137389
  C       2.738389      3.468855     -2.237663
  C       1.465399      3.868075     -2.991610
  C       0.583692     -0.771064      2.173495
  C       0.400388      2.820083      1.363663
  C       0.236492      3.735433     -2.089211
  C      -1.063276      4.172229     -2.745472
  C      -0.748947     -2.398929      1.054121
  C      -1.447712     -2.213610     -0.105252
  C      -1.201651     -3.301414      2.122938
  C      -2.505960     -3.930294      1.889136
  C      -1.097561     -1.410638     -1.287200
  C      -3.185816     -3.663349      0.683706
  C      -3.146618     -4.812971      2.802335
  C      -4.427224     -4.209178      0.361860
  C       0.229553     -1.020421     -1.548477
  C      -2.105217     -1.054230     -2.205081
  C      -4.388227     -5.368168      2.496660
  C      -5.023039     -5.066500      1.281202
  C       0.528846     -0.282707     -2.686486
  C      -1.800130     -0.296993     -3.332756
  C      -0.488890      0.109620     -3.578851
  H      -0.143137      1.595463      3.011272
  H       2.790751      1.646723      2.141462
  H       1.496754      0.337808      4.582918
  H       2.703323     -1.072205      2.173149
  H       3.705763      3.928910     -0.347685
  H       1.587195      5.002186      0.651191
  H       2.688092      2.401144     -2.000138
  H       1.542286      4.923434     -3.299359
  H      -0.258949     -0.812291      2.881481
  H      -0.565217      2.717220      0.854014
  H       0.367092      3.708561      2.008887
  H       0.153593      2.699775     -1.735569
  H      -1.891086      4.094189     -2.033821
  H      -1.283798      3.536225     -3.608464
  H      -0.995535      5.211866     -3.085826
  H       1.604388      2.696819      4.479330
  H       3.753359      1.140108      4.551667
  H       1.173497     -2.678155      3.467392
  H       2.342101      6.089950     -1.503183
  H       4.098140      4.594655     -3.007521
  H       2.246277      3.049936     -4.549199
  H      -4.907960     -3.978142     -0.580694
  H       1.036054     -1.294310     -0.883741
  H      -3.129466     -1.359655     -2.028958
  H      -4.867310     -6.040085      3.207994
  H      -2.574376     -0.005357     -4.035965
  H      -3.074917     -5.704585      4.481808
  H      -6.537222     -6.177593      1.663211
  H       1.882173      0.334621     -3.866645
  H       0.325896      1.638035     -4.477447
73
Coordinates from ORCA-job Rutin E -2249.188626341893
  O       0.512551      0.437123      1.419589
  O       1.455611      2.958748      0.402157
  O       0.482261      4.613888     -0.967433
  O       2.219616      2.755056      3.731042
  O       3.524982      0.258789      4.234469
  O       0.479513     -1.825549      1.237499
  O       1.835695     -2.037279      3.803861
  O       3.208163      5.643738     -1.283673
  O       3.894040      3.635698     -3.081385
  O       1.380074      3.056534     -4.174634
  O      -2.661105     -2.857512     -0.261485
  O      -0.502419     -3.492465      3.129642
  O      -2.503091     -5.114697      3.967581
  O      -6.217359     -5.634746      0.958096
  O       1.798234      0.074822     -2.932786
  O      -0.245376      0.873231     -4.681391
  C       0.636221      1.604569      2.224756
  C       2.009434      1.599461      2.911057
  C       2.201767      0.324912      3.738344
  C       1.898212     -0.938896      2.927486
  C       2.889793      4.288887     -0.947207
  C       1.582455      4.238077     -0.142374
  C       2.763473      3.459841     -2.231775
  C       1.497692      3.861149     -2.996121
  C       0.572367     -0.765366      2.169988
  C       0.395755      2.824869      1.349105
  C       0.260970      3.740594     -2.101942
  C      -1.031259      4.181902     -2.769974
  C      -0.755958     -2.401550      1.055521
  C      -1.460866     -2.217046     -0.100327
  C      -1.199126     -3.310787      2.122441
  C      -2.500387     -3.947209      1.890595
  C      -1.121848     -1.404008     -1.278432
  C      -3.185869     -3.681560      0.688149
  C      -3.131900     -4.837648      2.802732
  C      -4.423832     -4.235916      0.367855
  C       0.202713     -1.014466     -1.550449
  C      -2.138562     -1.035890     -2.181956
  C      -4.370009     -5.401494      2.498666
  C      -5.010457     -5.100936      1.285881
  C       0.493136     -0.263756     -2.682543
  C      -1.843096     -0.265686     -3.302427
  C      -0.533367      0.143141     -3.558000
  H      -0.156294      1.607348      2.999651
  H       2.779916      1.652054      2.138075
  H       1.476725      0.348020      4.577454
  H       2.692431     -1.062387      2.171891
  H       3.719459      3.923238     -0.336751
  H       1.597969      5.002968      0.646855
  H       2.707822      2.393388     -1.990386
  H       1.582791      4.914008     -3.310054
  H      -0.271079     -0.805993      2.877188
  H      -0.566084      2.720848      0.832519
  H       0.357793      3.715342      1.991293
  H       0.170217      2.707488     -1.743467
  H      -1.862244      4.121776     -2.060203
  H      -1.254815      3.535099     -3.623989
  H      -0.952359      5.215963     -3.124400
  H       1.587278      2.709866      4.469323
  H       3.733547      1.155031      4.550076
  H       1.168416     -2.672785      3.466130
  H       2.370122      6.085342     -1.506778
  H       4.133110      4.578117     -2.995180
  H       2.281794      3.031327     -4.547491
  H      -4.908835     -4.005380     -0.572644
  H       1.015471     -1.297874     -0.897157
  H      -3.161663     -1.340971     -1.998374
  H      -4.841910     -6.079289      3.209229
  H      -2.623193      0.038048     -3.993954
  H      -3.049238     -5.733533      4.479442
  H      -6.514605     -6.225570      1.667972
  H       1.853597      0.354974     -3.862048
  H       0.310722      1.656871     -4.458820
73
Coordinates from ORCA-job Rutin E -2249.188616995802
  O       0.517470      0.443457      1.423161
  O       1.470431      2.964063      0.410802
  O       0.481689      4.595707     -0.974891
  O       2.222221      2.752953      3.744663
  O       3.522932      0.253223      4.244231
  O       0.476103     -1.817516      1.235397
  O       1.834107     -2.038288      3.803406
  O       3.197106      5.653668     -1.294712
  O       3.907157      3.642908     -3.079246
  O       1.400450      3.033988     -4.173882
  O      -2.664678     -2.849992     -0.261609
  O      -0.499236     -3.496251      3.122487
  O      -2.497815     -5.121236      3.959083
  O      -6.216259     -5.634868      0.953506
  O       1.775616      0.119323     -2.923986
  O      -0.280568      0.899460     -4.677515
  C       0.643154      1.609715      2.229570
  C       2.014037      1.600240      2.920039
  C       2.201399      0.322999      3.744104
  C       1.897608     -0.938533      2.929465
  C       2.892830      4.297499     -0.950272
  C       1.585548      4.238957     -0.146210
  C       2.777226      3.459571     -2.230318
  C       1.508235      3.843926     -2.998001
  C       0.572551     -0.760518      2.171418
  C       0.407356      2.831151      1.354371
  C       0.272441      3.712709     -2.103847
  C      -1.025032      4.132473     -2.775408
  C      -0.758737     -2.394499      1.054699
  C      -1.466225     -2.206900     -0.099554
  C      -1.198048     -3.310175      2.117560
  C      -2.499464     -3.946659      1.886053
  C      -1.133345     -1.388271     -1.275768
  C      -3.187183     -3.677829      0.685820
  C      -3.128704     -4.840782      2.796181
  C      -4.425024     -4.232162      0.365347
  C       0.187307     -0.984087     -1.545565
  C      -2.152181     -1.032747     -2.182392
  C      -4.366733     -5.404859      2.492064
  C      -5.009419     -5.100938      1.281268
  C       0.472264     -0.230824     -2.677223
  C      -1.862309     -0.259719     -3.301999
  C      -0.556811      0.164673     -3.554404
  H      -0.151030      1.614743      3.002851
  H       2.787896      1.654499      2.150510
  H       1.473775      0.345000      4.581047
  H       2.691788     -1.060654      2.173491
  H       3.725871      3.944230     -0.337134
  H       1.592241      5.011432      0.635912
  H       2.732390      2.393633     -1.984463
  H       1.582133      4.896355     -3.316053
  H      -0.272067     -0.799712      2.877405
  H      -0.553678      2.729612      0.835934
  H       0.370486      3.721091      1.997581
  H       0.195626      2.680483     -1.739340
  H      -1.853650      4.072757     -2.062832
  H      -1.243474      3.471310     -3.619764
  H      -0.957488      5.162282     -3.144092
  H       1.588678      2.704521      4.481701
  H       3.732312      1.148617      4.561743
  H       1.167310     -2.673694      3.464251
  H       2.354467      6.084587     -1.521319
  H       4.135230      4.588610     -2.999710
  H       2.303337      3.014249     -4.544149
  H      -4.911475     -3.998810     -0.573710
  H       1.001004     -1.258949     -0.890201
  H      -3.172057     -1.349404     -2.000898
  H      -4.836817     -6.085557      3.201065
  H      -2.643019      0.036587     -3.996020
  H      -3.042761     -5.742069      4.469804
  H      -6.511802     -6.228488      1.661765
  H       1.835116      0.389168     -3.855895
  H       0.305890      1.662463     -4.461770
73
Coordinates from ORCA-job Rutin E -2249.188640115863
  O       0.507843      0.437440      1.419084
  O       1.461426      2.951183      0.388237
  O       0.501668      4.617961     -0.975886
  O       2.213055      2.765412      3.721334
  O       3.506199      0.269700      4.250517
  O       0.472339     -1.824418      1.245883
  O       1.814211     -2.023451      3.826127
  O       3.229743      5.629245     -1.292656
  O       3.906068      3.618766     -3.093748
  O       1.384256      3.059728     -4.187186
  O      -2.663183     -2.865809     -0.255656
  O      -0.499328     -3.508472      3.131455
  O      -2.492857     -5.142591      3.962354
  O      -6.204846     -5.667316      0.950800
  O       1.781477      0.085785     -2.922813
  O      -0.276865      0.906918     -4.653118
  C       0.632326      1.609555      2.216772
  C       2.002581      1.604798      2.908341
  C       2.186376      0.335604      3.745363
  C       1.883928     -0.932883      2.941357
  C       2.906065      4.275170     -0.958290
  C       1.599674      4.230542     -0.152445
  C       2.774147      3.449282     -2.244443
  C       1.511320      3.862176     -3.007891
  C       0.562134     -0.761446      2.175648
  C       0.397600      2.824482      1.332060
  C       0.273316      3.751830     -2.113814
  C      -1.013739      4.208862     -2.781452
  C      -0.759706     -2.406579      1.063913
  C      -1.466868     -2.220006     -0.090516
  C      -1.197214     -3.324230      2.125673
  C      -2.496090     -3.965253      1.890930
  C      -1.133781     -1.396424     -1.263507
  C      -3.183436     -3.697439      0.690177
  C      -3.123109     -4.863205      2.798843
  C      -4.418404     -4.256617      0.367108
  C       0.189957     -1.009196     -1.541325
  C      -2.156232     -1.017764     -2.156484
  C      -4.358413     -5.431893      2.492246
  C      -5.000619     -5.129020      1.280959
  C       0.475846     -0.249214     -2.668579
  C      -1.865228     -0.238894     -3.271783
  C      -0.555697      0.167861     -3.532654
  H      -0.162513      1.620635      2.989348
  H       2.776994      1.649485      2.138787
  H       1.455919      0.366080      4.579550
  H       2.680853     -1.063582      2.189672
  H       3.735240      3.904169     -0.350351
  H       1.621258      4.993134      0.638942
  H       2.711080      2.382406     -2.006902
  H       1.607088      4.914334     -3.320919
  H      -0.285765     -0.797738      2.877941
  H      -0.562480      2.718628      0.812766
  H       0.358851      3.718921      1.968595
  H       0.172612      2.717715     -1.760330
  H      -1.844007      4.159915     -2.069939
  H      -1.246328      3.563189     -3.634018
  H      -0.921995      5.241337     -3.137254
  H       1.579425      2.725893      4.458850
  H       3.716697      1.169184      4.555573
  H       1.158317     -2.667883      3.482622
  H       2.392401      6.074295     -1.511677
  H       4.150227      4.559990     -3.008945
  H       2.285518      3.024636     -4.560352
  H      -4.904344     -4.023731     -0.572331
  H       1.004826     -1.301582     -0.894745
  H      -3.178696     -1.321818     -1.967523
  H      -4.826712     -6.115370      3.199751
  H      -2.647036      0.074873     -3.956895
  H      -3.036318     -5.765854      4.471682
  H      -6.498971     -6.263061      1.657860
  H       1.835752      0.369519     -3.851124
  H       0.299870      1.675997     -4.433963
73
Coordinates from ORCA-job Rutin E -2249.188637567771
  O       0.500809      0.440412      1.415448
  O       1.455735      2.954972      0.387044
  O       0.509067      4.627396     -0.979226
  O       2.208259      2.768497      3.716305
  O       3.503642      0.272817      4.242195
  O       0.468332     -1.822624      1.241941
  O       1.810722     -2.020405      3.820669
  O       3.240906      5.628584     -1.283083
  O       3.921449      3.609671     -3.076046
  O       1.402542      3.054978     -4.181050
  O      -2.669012     -2.871023     -0.253051
  O      -0.496006     -3.507078      3.129270
  O      -2.481059     -5.149338      3.963519
  O      -6.199898     -5.682703      0.962129
  O       1.765846      0.087919     -2.930175
  O      -0.299622      0.910538     -4.654101
  C       0.625420      1.612268      2.213761
  C       1.996628      1.607880      2.903609
  C       2.182674      0.338703      3.740108
  C       1.879409     -0.929436      2.936175
  C       2.911918      4.276077     -0.948112
  C       1.600807      4.235484     -0.149726
  C       2.783828      3.448011     -2.232750
  C       1.526813      3.863008     -3.004871
  C       0.556899     -0.758932      2.171366
  C       0.390920      2.827998      1.329685
  C       0.283076      3.761627     -2.117779
  C      -0.997491      4.225363     -2.793608
  C      -0.763255     -2.407420      1.061428
  C      -1.473233     -2.222640     -0.091489
  C      -1.196646     -3.324994      2.124931
  C      -2.493542     -3.970671      1.892871
  C      -1.143835     -1.399515     -1.265429
  C      -3.184792     -3.704059      0.694050
  C      -3.115305     -4.871013      2.801943
  C      -4.419128     -4.266647      0.374158
  C       0.178626     -1.009867     -1.546154
  C      -2.168378     -1.020816     -2.155591
  C      -4.349830     -5.443031      2.498437
  C      -4.996260     -5.141176      1.289201
  C       0.460807     -0.248499     -2.673340
  C      -1.881554     -0.239987     -3.270762
  C      -0.573432      0.169036     -3.534832
  H      -0.169081      1.622453      2.986616
  H       2.769561      1.652567      2.132634
  H       1.453994      0.368708      4.575867
  H       2.676015     -1.059781      2.184080
  H       3.736730      3.903716     -0.335022
  H       1.620288      4.996489      0.643109
  H       2.713839      2.382376     -1.992626
  H       1.628362      4.913350     -3.322232
  H      -0.290357     -0.796757      2.874280
  H      -0.568428      2.721858      0.809117
  H       0.351129      3.722141      1.966406
  H       0.173105      2.728565     -1.764040
  H      -1.833146      4.178473     -2.088343
  H      -1.226919      3.583414     -3.649854
  H      -0.898861      5.258540     -3.145760
  H       1.575514      2.728950      4.454578
  H       3.714219      1.171527      4.549378
  H       1.156315     -2.665734      3.475875
  H       2.405589      6.075083     -1.506993
  H       4.169225      4.550069     -2.992651
  H       2.305968      3.011995     -4.548096
  H      -4.908446     -4.034732     -0.563754
  H       0.995985     -1.301522     -0.902220
  H      -3.190148     -1.325986     -1.964667
  H      -4.814205     -6.128315      3.206767
  H      -2.666222      0.073869     -3.952518
  H      -3.021253     -5.774604      4.473852
  H      -6.490378     -6.279509      1.669787
  H       1.819121      0.372736     -3.857936
  H       0.285328      1.674596     -4.439100
73
Coordinates from ORCA-job Rutin E -2249.188649346612
  O       0.505311      0.439504      1.418896
  O       1.458660      2.952914      0.389212
  O       0.503744      4.621863     -0.975470
  O       2.212670      2.766694      3.720524
  O       3.507311      0.269965      4.246027
  O       0.471633     -1.822973      1.244745
  O       1.812027     -2.021610      3.825492
  O       3.234023      5.627990     -1.289076
  O       3.909899      3.612161     -3.086377
  O       1.387692      3.055565     -4.182667
  O      -2.664541     -2.866606     -0.255241
  O      -0.497764     -3.507441      3.129915
  O      -2.488026     -5.144859      3.961700
  O      -6.203852     -5.669570      0.954978
  O       1.775445      0.090390     -2.926885
  O      -0.283145      0.901977     -4.658884
  C       0.630192      1.611133      2.217363
  C       2.001261      1.606293      2.907444
  C       2.186432      0.336899      3.743900
  C       1.882231     -0.931290      2.940340
  C       2.907508      4.274780     -0.953964
  C       1.599700      4.232685     -0.150361
  C       2.775858      3.447506     -2.238869
  C       1.515081      3.861453     -3.005467
  C       0.560298     -0.759838      2.174754
  C       0.395425      2.826955      1.333681
  C       0.275206      3.756222     -2.113417
  C      -1.009265      4.217389     -2.783493
  C      -0.760406     -2.405929      1.062422
  C      -1.468206     -2.219902     -0.091677
  C      -1.196629     -3.323702      2.124671
  C      -2.494737     -3.966331      1.890956
  C      -1.136145     -1.397725     -1.265643
  C      -3.183600     -3.698312      0.691109
  C      -3.120004     -4.865044      2.799247
  C      -4.418848     -4.257817      0.369472
  C       0.186629     -1.006115     -1.542739
  C      -2.158457     -1.024272     -2.160685
  C      -4.355442     -5.434153      2.493971
  C      -4.999427     -5.130857      1.283765
  C       0.470846     -0.248102     -2.671570
  C      -1.869385     -0.246569     -3.277479
  C      -0.561200      0.164005     -3.537938
  H      -0.164180      1.621466      2.990368
  H       2.774673      1.650990      2.136892
  H       1.457714      0.367599      4.579596
  H       2.679025     -1.062747      2.188629
  H       3.734958      3.902823     -0.344245
  H       1.621346      4.994926      0.641293
  H       2.709005      2.381364     -1.999577
  H       1.613565      4.912416     -3.321651
  H      -0.287580     -0.797289      2.876950
  H      -0.565128      2.722137      0.815048
  H       0.358010      3.720956      1.970847
  H       0.169330      2.722553     -1.760100
  H      -1.841490      4.169320     -2.074247
  H      -1.241508      3.574569     -3.638246
  H      -0.914066      5.250496     -3.136713
  H       1.580311      2.726392      4.459083
  H       3.718462      1.168318      4.553841
  H       1.157829     -2.666955      3.480407
  H       2.397619      6.073940     -1.509959
  H       4.156375      4.552881     -3.002955
  H       2.289028      3.018727     -4.555471
  H      -4.906180     -4.024802     -0.569204
  H       1.002136     -1.294107     -0.894965
  H      -3.180119     -1.331362     -1.972419
  H      -4.822447     -6.118315      3.201661
  H      -2.652067      0.063154     -3.963403
  H      -3.030449     -5.768760      4.471350
  H      -6.496851     -6.265548      1.662303
  H       1.828294      0.372258     -3.855743
  H       0.294080      1.671177     -4.440455
73
Coordinates from ORCA-job Rutin E -2249.188647916800
  O       0.504640      0.439778      1.418629
  O       1.459419      2.952265      0.387518
  O       0.506106      4.621210     -0.978049
  O       2.211369      2.768545      3.719072
  O       3.504617      0.271802      4.248020
  O       0.470536     -1.822596      1.246062
  O       1.807899     -2.019003      3.829326
  O       3.236720      5.626412     -1.290205
  O       3.913016      3.610629     -3.087342
  O       1.391622      3.055181     -4.184861
  O      -2.665631     -2.866444     -0.253649
  O      -0.496600     -3.510710      3.129522
  O      -2.485098     -5.151077      3.959679
  O      -6.202059     -5.674076      0.954043
  O       1.771901      0.091849     -2.926353
  O      -0.289823      0.909163     -4.653630
  C       0.629410      1.612013      2.216117
  C       2.000046      1.607375      2.907045
  C       2.184113      0.338789      3.744941
  C       1.879791     -0.930121      2.942587
  C       2.909781      4.273246     -0.955188
  C       1.601510      4.231734     -0.152289
  C       2.778632      3.446060     -2.240229
  C       1.518445      3.860672     -3.007384
  C       0.558623     -0.758942      2.175511
  C       0.395437      2.827135      1.331286
  C       0.278091      3.755647     -2.116062
  C      -1.005910      4.217028     -2.786900
  C      -0.761123     -2.406284      1.063794
  C      -1.469737     -2.219177     -0.089639
  C      -1.196001     -3.326046      2.124856
  C      -2.493768     -3.969349      1.890761
  C      -1.138793     -1.395104     -1.262599
  C      -3.183502     -3.700040      0.691715
  C      -3.117879     -4.869958      2.797975
  C      -4.418455     -4.260005      0.369828
  C       0.183984     -1.004825     -1.541503
  C      -2.162294     -1.018830     -2.155092
  C      -4.353028     -5.439582      2.492451
  C      -4.997884     -5.134935      1.283049
  C       0.467154     -0.245142     -2.669453
  C      -1.874249     -0.239551     -3.271003
  C      -0.565996      0.169899     -3.533131
  H      -0.165355      1.623320      2.988714
  H       2.773979      1.650995      2.136980
  H       1.454819      0.370740      4.580086
  H       2.677082     -1.063052      2.191650
  H       3.736855      3.901164     -0.345045
  H       1.623080      4.994216      0.639135
  H       2.711351      2.379760     -2.001490
  H       1.617683      4.911670     -3.323243
  H      -0.289997     -0.795621      2.876882
  H      -0.564792      2.722157      0.812078
  H       0.357739      3.721564      1.967846
  H       0.171951      2.721953     -1.762823
  H      -1.838219      4.170046     -2.077670
  H      -1.238486      3.573638     -3.641159
  H      -0.909943      5.249780     -3.140933
  H       1.579005      2.728832      4.457665
  H       3.716096      1.170492      4.554633
  H       1.156508     -2.666296      3.482546
  H       2.400445      6.072391     -1.511537
  H       4.159123      4.551495     -3.004339
  H       2.293654      3.016915     -4.555915
  H      -4.906414     -4.025892     -0.568252
  H       1.000224     -1.295230     -0.895696
  H      -3.183975     -1.325048     -1.965412
  H      -4.819104     -6.125218      3.199331
  H      -2.657615      0.072489     -3.955090
  H      -3.026858     -5.776072      4.468694
  H      -6.494248     -6.271350      1.660611
  H       1.824105      0.374191     -3.855068
  H       0.291979      1.675237     -4.436803
73
Coordinates from ORCA-job Rutin E -2249.188650503394
  O       0.502712      0.440715      1.418182
  O       1.459332      2.951531      0.385101
  O       0.510645      4.623120     -0.980334
  O       2.208999      2.771726      3.716697
  O       3.500894      0.274685      4.249637
  O       0.469157     -1.821802      1.247617
  O       1.801213     -2.014546      3.834853
  O       3.243419      5.622121     -1.291115
  O       3.916479      3.604090     -3.087642
  O       1.394226      3.054164     -4.186317
  O      -2.666778     -2.867209     -0.251776
  O      -0.494486     -3.514786      3.128664
  O      -2.479955     -5.159612      3.957061
  O      -6.199169     -5.680774      0.953914
  O       1.766920      0.093669     -2.926703
  O      -0.298360      0.915836     -4.648738
  C       0.627363      1.613729      2.214502
  C       1.997626      1.609447      2.906245
  C       2.180595      0.342025      3.746095
  C       1.875682     -0.927866      2.945662
  C       2.913491      4.269618     -0.956198
  C       1.604671      4.230895     -0.154061
  C       2.781172      3.442605     -2.241137
  C       1.522448      3.860109     -3.009189
  C       0.555639     -0.757275      2.176316
  C       0.394701      2.828183      1.328335
  C       0.281264      3.758522     -2.118650
  C      -1.001064      4.223496     -2.790287
  C      -0.761828     -2.406983      1.065050
  C      -1.471409     -2.218993     -0.087621
  C      -1.194742     -3.329191      2.124805
  C      -2.491836     -3.973828      1.890471
  C      -1.141989     -1.393060     -1.259628
  C      -3.182963     -3.703014      0.692570
  C      -3.114111     -4.876880      2.796505
  C      -4.417629     -4.263648      0.370745
  C       0.180581     -1.003398     -1.540421
  C      -2.166813     -1.014584     -2.149609
  C      -4.348923     -5.447267      2.491006
  C      -4.995261     -5.140961      1.282825
  C       0.462248     -0.242387     -2.667800
  C      -1.880335     -0.233778     -3.264826
  C      -0.572242      0.175028     -3.528867
  H      -0.167891      1.626182      2.986568
  H       2.772010      1.651515      2.136556
  H       1.451023      0.375858      4.580912
  H       2.673762     -1.063125      2.195958
  H       3.739441      3.895829     -0.345581
  H       1.627593      4.993096      0.637580
  H       2.710946      2.376496     -2.002446
  H       1.624617      4.910633     -3.325661
  H      -0.294095     -0.793451      2.876387
  H      -0.565322      2.723633      0.808653
  H       0.357367      3.723090      1.964233
  H       0.171958      2.725001     -1.765827
  H      -1.833607      4.179613     -2.081125
  H      -1.235598      3.580466     -3.644271
  H      -0.901746      5.255797     -3.144746
  H       1.576849      2.732775      4.455519
  H       3.712951      1.173434      4.555642
  H       1.154315     -2.664887      3.485301
  H       2.408142      6.069736     -1.512930
  H       4.164692      4.544438     -3.005080
  H       2.296373      3.013647     -4.556882
  H      -4.906670     -4.028248     -0.566448
  H       0.997773     -1.295441     -0.896506
  H      -3.188372     -1.320330     -1.958454
  H      -4.813552     -6.134837      3.196962
  H      -2.664709      0.080097     -3.946912
  H      -3.020659     -5.786058      4.465413
  H      -6.490108     -6.279598      1.659687
  H       1.818147      0.376574     -3.855263
  H       0.288486      1.678492     -4.433575
73
Coordinates from ORCA-job Rutin E -2249.188653418289
  O       0.501439      0.441544      1.418008
  O       1.458637      2.951260      0.383873
  O       0.513234      4.624728     -0.981593
  O       2.207083      2.774021      3.715550
  O       3.499050      0.276592      4.250043
  O       0.468685     -1.821191      1.248710
  O       1.796533     -2.011263      3.838752
  O       3.248390      5.618472     -1.291612
  O       3.917810      3.598305     -3.087573
  O       1.395099      3.053321     -4.187013
  O      -2.667506     -2.866871     -0.250393
  O      -0.492611     -3.517657      3.127674
  O      -2.475952     -5.165665      3.954745
  O      -6.197540     -5.683920      0.954060
  O       1.764330      0.093896     -2.927822
  O      -0.302458      0.918566     -4.646774
  C       0.625812      1.614948      2.213805
  C       1.995920      1.611084      2.905990
  C       2.178622      0.344329      3.746893
  C       1.873042     -0.926154      2.947798
  C       2.915478      4.266695     -0.956678
  C       1.606241      4.230512     -0.155032
  C       2.781827      3.439738     -2.241411
  C       1.524283      3.859627     -3.010129
  C       0.553802     -0.755996      2.176871
  C       0.393873      2.829157      1.327052
  C       0.282534      3.760751     -2.120069
  C      -0.998605      4.228511     -2.792076
  C      -0.761976     -2.407168      1.065710
  C      -1.472232     -2.218353     -0.086366
  C      -1.193580     -3.331140      2.124514
  C      -2.490286     -3.976538      1.890084
  C      -1.143609     -1.391650     -1.257956
  C      -3.182548     -3.704237      0.693170
  C      -3.111278     -4.881355      2.795218
  C      -4.417235     -4.264960      0.371547
  C       0.178906     -1.002526     -1.539915
  C      -2.169068     -1.012073     -2.146646
  C      -4.346066     -5.451893      2.489877
  C      -4.993624     -5.143981      1.282768
  C       0.459730     -0.241338     -2.667326
  C      -1.883481     -0.230796     -3.261787
  C      -0.575452      0.177342     -3.527113
  H      -0.169760      1.627781      2.985510
  H       2.770470      1.652441      2.136441
  H       1.449287      0.379352      4.581857
  H       2.671700     -1.063135      2.199014
  H       3.740355      3.891297     -0.345614
  H       1.630347      4.992573      0.636696
  H       2.708979      2.373878     -2.002433
  H       1.628612      4.909786     -3.327090
  H      -0.296663     -0.792072      2.876065
  H      -0.566185      2.725218      0.807308
  H       0.357140      3.724230      1.962741
  H       0.170727      2.727426     -1.767437
  H      -1.831331      4.186708     -2.082997
  H      -1.234594      3.586026     -3.646055
  H      -0.896887      5.260584     -3.146564
  H       1.575161      2.735268      4.454576
  H       3.711423      1.175008      4.556745
  H       1.153502     -2.664075      3.486658
  H       2.414207      6.067846     -1.513969
  H       4.168249      4.538073     -3.005169
  H       2.297400      3.011012     -4.557041
  H      -4.907190     -4.028371     -0.564866
  H       0.996718     -1.295176     -0.897013
  H      -3.190622     -1.317341     -1.954643
  H      -4.809688     -6.140888      3.195104
  H      -2.668593      0.083837     -3.942664
  H      -3.015946     -5.793129      4.462597
  H      -6.487622     -6.283845      1.659245
  H       1.814623      0.377129     -3.856311
  H       0.286627      1.679788     -4.432519
73
Coordinates from ORCA-job Rutin E -2249.188653349721
  O       0.500766      0.441973      1.417793
  O       1.458449      2.951186      0.383182
  O       0.514863      4.625901     -0.982099
  O       2.205812      2.775119      3.715118
  O       3.497781      0.277660      4.250533
  O       0.468286     -1.820836      1.249071
  O       1.794582     -2.009849      3.840135
  O       3.251262      5.616522     -1.291952
  O       3.918422      3.595268     -3.087673
  O       1.395326      3.053135     -4.187316
  O      -2.667978     -2.866918     -0.249747
  O      -0.491732     -3.518826      3.127236
  O      -2.474037     -5.168220      3.953911
  O      -6.196433     -5.686209      0.954180
  O       1.763121      0.093277     -2.928395
  O      -0.304466      0.920012     -4.645688
  C       0.624977      1.615599      2.213313
  C       1.994909      1.611913      2.905890
  C       2.177404      0.345424      3.747213
  C       1.871819     -0.925309      2.948556
  C       2.916699      4.265192     -0.956958
  C       1.607312      4.230406     -0.155459
  C       2.782162      3.438254     -2.241602
  C       1.525210      3.859520     -3.010542
  C       0.552902     -0.755362      2.176988
  C       0.393473      2.829628      1.326178
  C       0.283198      3.762199     -2.120637
  C      -0.997253      4.231591     -2.792782
  C      -0.762166     -2.407251      1.065988
  C      -1.472786     -2.218212     -0.085805
  C      -1.193083     -3.331992      2.124422
  C      -2.489588     -3.977821      1.889993
  C      -1.144615     -1.391091     -1.257227
  C      -3.182363     -3.705080      0.693478
  C      -3.109885     -4.883459      2.794780
  C      -4.416925     -4.266134      0.371931
  C       0.177916     -1.002595     -1.539888
  C      -2.170448     -1.010569     -2.145057
  C      -4.344542     -5.454324      2.489514
  C      -4.992637     -5.145946      1.282814
  C       0.458445     -0.241197     -2.667239
  C      -1.885161     -0.228975     -3.260053
  C      -0.577063      0.178480     -3.526151
  H      -0.170827      1.628678      2.984773
  H       2.769648      1.653047      2.136519
  H       1.447988      0.380804      4.582081
  H       2.670740     -1.062833      2.200152
  H       3.741052      3.888884     -0.345743
  H       1.632099      4.992272      0.636432
  H       2.708009      2.372544     -2.002395
  H       1.630738      4.909507     -3.327655
  H      -0.297829     -0.791383      2.875877
  H      -0.566483      2.725830      0.806219
  H       0.356824      3.724861      1.961642
  H       0.170090      2.729026     -1.767986
  H      -1.830146      4.190757     -2.083845
  H      -1.233890      3.589418     -3.646822
  H      -0.894233      5.263556     -3.147196
  H       1.573662      2.736639      4.453963
  H       3.710094      1.175999      4.557486
  H       1.153020     -2.663607      3.487114
  H       2.417696      6.066970     -1.514434
  H       4.170150      4.534694     -3.005305
  H       2.297640      3.009709     -4.557181
  H      -4.907293     -4.029192     -0.564177
  H       0.996025     -1.295871     -0.897636
  H      -3.192058     -1.315322     -1.952537
  H      -4.807630     -6.143956      3.194472
  H      -2.670628      0.086356     -3.940200
  H      -3.013616     -5.796187      4.461584
  H      -6.486027     -6.286667      1.659113
  H       1.813140      0.376845     -3.856797
  H       0.285812      1.680437     -4.431863
