32
Coordinates from ORCA-job Quercetin E -1103.542226076789
  O      -0.323057     -0.869543     -0.115583
  O       0.745129      2.680067     -0.050016
  O      -4.424857      1.719305      0.162214
  O      -2.056369      2.808192      0.083679
  O      -4.513625     -3.029120      0.008068
  O       4.721147     -0.496648      2.050028
  O       5.953817     -0.776552     -0.427516
  C      -2.329087      0.489380      0.023042
  C      -1.686274     -0.743108     -0.047547
  C       0.446284      0.279618     -0.113997
  C       1.885522     -0.001537     -0.189754
  C      -0.034505      1.536967     -0.050817
  C      -1.511397      1.709261      0.023650
  C      -3.726613      0.543536      0.090548
  C      -2.432967     -1.921432     -0.051637
  C      -3.821833     -1.854299      0.015341
  C       2.629694     -0.176003      0.984434
  C      -4.478297     -0.629209      0.086899
  C       2.528281     -0.057927     -1.437156
  C       3.997666     -0.398653      0.897208
  C       3.902384     -0.299054     -1.512825
  C       4.624362     -0.483571     -0.342432
  H      -1.938559     -2.887432     -0.106488
  H       2.154575     -0.122978      1.960799
  H      -5.560599     -0.566007      0.139725
  H       1.961083      0.076365     -2.356548
  H       4.397970     -0.359967     -2.477577
  H       1.683629      2.431052     -0.089608
  H      -3.776009      2.461206      0.156851
  H      -5.464785     -2.833534      0.060492
  H       5.598933     -0.117385      1.858920
  H       6.122061     -1.470592      0.236702
32
Coordinates from ORCA-job Quercetin E -1103.549427493673
  O      -0.333963     -0.842722     -0.114151
  O       0.677335      2.690471     -0.064892
  O      -4.428522      1.712850      0.151919
  O      -2.054667      2.874611      0.071823
  O      -4.484632     -3.045615      0.024845
  O       4.727869     -0.569491      2.056734
  O       5.976639     -0.787689     -0.419766
  C      -2.334952      0.515863      0.019640
  C      -1.694223     -0.733256     -0.045535
  C       0.431166      0.300890     -0.119291
  C       1.886683      0.021688     -0.195385
  C      -0.077897      1.555267     -0.059689
  C      -1.537236      1.748554      0.015194
  C      -3.745291      0.550283      0.088070
  C      -2.418066     -1.923522     -0.043573
  C      -3.810032     -1.861836      0.025085
  C       2.633282     -0.159966      0.979988
  C      -4.480901     -0.634070      0.091034
  C       2.533912     -0.032386     -1.441041
  C       4.001825     -0.408444      0.900733
  C       3.902249     -0.304130     -1.516867
  C       4.629626     -0.510442     -0.346927
  H      -1.913405     -2.882118     -0.093990
  H       2.159481     -0.105034      1.954794
  H      -5.564452     -0.579544      0.144384
  H       1.967669      0.115994     -2.355684
  H       4.401106     -0.369051     -2.478333
  H       1.614148      2.434633     -0.109406
  H      -3.750827      2.433506      0.137595
  H      -5.436220     -2.863668      0.077159
  H       5.624807     -0.229510      1.889075
  H       6.171187     -1.471716      0.245556
32
Coordinates from ORCA-job Quercetin E -1103.550581790958
  O      -0.335773     -0.828906     -0.108985
  O       0.638811      2.696447     -0.079420
  O      -4.418267      1.716994      0.142221
  O      -2.066139      2.891440      0.051840
  O      -4.468341     -3.051417      0.041598
  O       4.723022     -0.613505      2.058394
  O       5.980508     -0.799207     -0.413866
  C      -2.331270      0.524945      0.016566
  C      -1.695274     -0.733121     -0.040947
  C       0.427727      0.309934     -0.121340
  C       1.889575      0.035145     -0.197396
  C      -0.102427      1.560158     -0.067642
  C      -1.553497      1.757049      0.005963
  C      -3.751010      0.553551      0.084614
  C      -2.406082     -1.928858     -0.032817
  C      -3.800269     -1.865410      0.034981
  C       2.632287     -0.165807      0.978012
  C      -4.477086     -0.636911      0.093360
  C       2.541216     -0.007895     -1.440799
  C       3.998378     -0.426425      0.903460
  C       3.906438     -0.289797     -1.515488
  C       4.630684     -0.519279     -0.347570
  H      -1.896386     -2.883635     -0.077547
  H       2.158605     -0.112797      1.953072
  H      -5.561180     -0.586807      0.145964
  H       1.975929      0.156629     -2.352870
  H       4.412893     -0.351031     -2.473366
  H       1.577791      2.445318     -0.128102
  H      -3.730720      2.436099      0.126907
  H      -5.421262     -2.875552      0.092352
  H       5.618574     -0.263566      1.909600
  H       6.176244     -1.503382      0.228353
32
Coordinates from ORCA-job Quercetin E -1103.550761441645
  O      -0.334016     -0.822174     -0.106582
  O       0.631006      2.703935     -0.099667
  O      -4.413848      1.717497      0.123351
  O      -2.075894      2.890920      0.037793
  O      -4.461181     -3.053139      0.072992
  O       4.705180     -0.670950      2.057225
  O       5.980083     -0.790741     -0.406350
  C      -2.328984      0.525612      0.009744
  C      -1.694011     -0.733608     -0.037357
  C       0.429088      0.315688     -0.128252
  C       1.890736      0.043282     -0.201222
  C      -0.108257      1.564049     -0.082497
  C      -1.560005      1.756464     -0.011714
  C      -3.752790      0.552495      0.079802
  C      -2.399837     -1.931449     -0.016958
  C      -3.794591     -1.867052      0.053688
  C       2.624953     -0.184277      0.974610
  C      -4.473962     -0.639902      0.101770
  C       2.549689      0.022933     -1.440993
  C       3.989548     -0.448582      0.904138
  C       3.914356     -0.261071     -1.512383
  C       4.630085     -0.516011     -0.345406
  H      -1.887686     -2.884974     -0.053869
  H       2.146236     -0.148676      1.948220
  H      -5.558286     -0.592912      0.155407
  H       1.988845      0.208153     -2.352099
  H       4.430655     -0.304905     -2.466170
  H       1.571283      2.457945     -0.149067
  H      -3.723956      2.437432      0.092120
  H      -5.414646     -2.879283      0.124121
  H       5.600942     -0.313867      1.927839
  H       6.172965     -1.512437      0.216868
32
Coordinates from ORCA-job Quercetin E -1103.550843475712
  O      -0.329764     -0.812968     -0.088535
  O       0.621960      2.715137     -0.163323
  O      -4.407926      1.716652      0.100622
  O      -2.092753      2.887716     -0.048907
  O      -4.450615     -3.054912      0.128628
  O       4.671118     -0.784500      2.052231
  O       5.979581     -0.771894     -0.390923
  C      -2.325735      0.525005      0.001414
  C      -1.690719     -0.734096     -0.020182
  C       0.431883      0.324353     -0.136753
  C       1.892018      0.054983     -0.204013
  C      -0.114453      1.570163     -0.117776
  C      -1.567812      1.754256     -0.044958
  C      -3.755004      0.549992      0.070980
  C      -2.390010     -1.934541      0.022231
  C      -3.785681     -1.869114      0.088098
  C       2.609103     -0.231119      0.969590
  C      -4.469244     -0.644601      0.112146
  C       2.566357      0.089594     -1.434699
  C       3.972210     -0.497171      0.905335
  C       3.931462     -0.193271     -1.500665
  C       4.630055     -0.503899     -0.338170
  H      -1.874007     -2.886273      0.004030
  H       2.119060     -0.237991      1.938401
  H      -5.554006     -0.602877      0.164747
  H       2.015119      0.318473     -2.342091
  H       4.465973     -0.195265     -2.445645
  H       1.563502      2.475821     -0.214887
  H      -3.712490      2.436602      0.075594
  H      -5.404977     -2.883599      0.174490
  H       5.565125     -0.411186      1.960679
  H       6.164370     -1.529067      0.191410
32
Coordinates from ORCA-job Quercetin E -1103.551180645500
  O      -0.325560     -0.807524     -0.078215
  O       0.617453      2.721591     -0.226242
  O      -4.408525      1.713100      0.055443
  O      -2.101686      2.884082     -0.105019
  O      -4.439908     -3.055706      0.209339
  O       4.629854     -0.911684      2.040223
  O       5.981740     -0.749511     -0.371124
  C      -2.324813      0.523371     -0.015486
  C      -1.686937     -0.733214     -0.007754
  C       0.433483      0.330507     -0.153295
  C       1.892361      0.063160     -0.210867
  C      -0.116696      1.574583     -0.160163
  C      -1.571527      1.752372     -0.092519
  C      -3.756011      0.547114      0.057526
  C      -2.381862     -1.934680      0.066773
  C      -3.777333     -1.870216      0.136541
  C       2.587410     -0.294521      0.956467
  C      -4.464870     -0.648340      0.132260
  C       2.588559      0.171383     -1.424901
  C       3.951077     -0.556451      0.901284
  C       3.955758     -0.104996     -1.482103
  C       4.632428     -0.484859     -0.327813
  H      -1.862668     -2.884814      0.070503
  H       2.080352     -0.358528      1.914345
  H      -5.549719     -0.610882      0.187109
  H       2.051938      0.452357     -2.326517
  H       4.510228     -0.051325     -2.414020
  H       1.559611      2.484966     -0.272422
  H      -3.711650      2.432526      0.000006
  H      -5.394558     -2.886050      0.254376
  H       5.521048     -0.523364      1.992005
  H       6.154723     -1.544048      0.163361
32
Coordinates from ORCA-job Quercetin E -1103.552059247935
  O      -0.310413     -0.792809     -0.039647
  O       0.604761      2.730005     -0.442246
  O      -4.414111      1.689801     -0.115483
  O      -2.127191      2.860618     -0.296672
  O      -4.404678     -3.040849      0.494700
  O       4.494458     -1.339816      1.933706
  O       5.989804     -0.667430     -0.290737
  C      -2.323600      0.511898     -0.076675
  C      -1.672832     -0.727734      0.036560
  C       0.437740      0.345387     -0.206899
  C       1.891813      0.086191     -0.230861
  C      -0.120756      1.580674     -0.307553
  C      -1.580131      1.736265     -0.262551
  C      -3.757131      0.534528      0.005467
  C      -2.355985     -1.924505      0.225391
  C      -3.749920     -1.863204      0.307295
  C       2.514101     -0.516270      0.875866
  C      -4.450370     -0.654915      0.200614
  C       2.660913      0.450997     -1.347216
  C       3.881012     -0.757843      0.854753
  C       4.036173      0.201632     -1.368727
  C       4.640683     -0.414429     -0.279387
  H      -1.826955     -2.865721      0.308443
  H       1.948901     -0.782390      1.763429
  H      -5.535224     -0.630106      0.262357
  H       2.173299      0.906687     -2.204498
  H       4.654264      0.448857     -2.226361
  H       1.548852      2.501250     -0.458541
  H      -3.714250      2.395004     -0.285918
  H      -5.359837     -2.874946      0.535242
  H       5.368341     -0.923579      2.040849
  H       6.131967     -1.562847      0.064400
32
Coordinates from ORCA-job Quercetin E -1103.551429848098
  O      -0.300516     -0.765538     -0.013224
  O       0.577749      2.734943     -0.611435
  O      -4.405709      1.668630     -0.206761
  O      -2.164655      2.832326     -0.475732
  O      -4.370030     -3.017758      0.681716
  O       4.394600     -1.628927      1.799827
  O       5.989831     -0.617523     -0.202459
  C      -2.316370      0.505602     -0.116066
  C      -1.663956     -0.723492      0.069988
  C       0.443815      0.359176     -0.255428
  C       1.895456      0.110855     -0.247893
  C      -0.138419      1.578984     -0.418799
  C      -1.601370      1.714587     -0.377825
  C      -3.762895      0.521870     -0.024872
  C      -2.327686     -1.914708      0.335446
  C      -3.723349     -1.851821      0.419351
  C       2.465309     -0.650148      0.787094
  C      -4.436057     -0.661225      0.244305
  C       2.714264      0.630518     -1.261889
  C       3.829862     -0.888772      0.799231
  C       4.090315      0.389551     -1.247916
  C       4.643625     -0.375743     -0.231406
  H      -1.787593     -2.842576      0.472161
  H       1.862580     -1.037937      1.602735
  H      -5.521082     -0.647734      0.313386
  H       2.259632      1.201372     -2.067483
  H       4.759317      0.751254     -2.023419
  H       1.525611      2.526490     -0.619462
  H      -3.698726      2.369335     -0.408048
  H      -5.327080     -2.859890      0.717981
  H       5.239996     -1.209730      2.042702
  H       6.127234     -1.561570     -0.006706
32
Coordinates from ORCA-job Quercetin E -1103.552768370035
  O      -0.294834     -0.749899     -0.039385
  O       0.555389      2.777999     -0.534995
  O      -4.433124      1.664915     -0.146230
  O      -2.163520      2.856955     -0.457294
  O      -4.343544     -3.041168      0.618319
  O       4.396657     -1.522874      1.869576
  O       5.989860     -0.669492     -0.220642
  C      -2.321383      0.520301     -0.112682
  C      -1.657479     -0.708681      0.046896
  C       0.445775      0.378892     -0.266630
  C       1.895410      0.113566     -0.264054
  C      -0.140707      1.605981     -0.398117
  C      -1.602869      1.739745     -0.363690
  C      -3.762182      0.522926     -0.009953
  C      -2.314509     -1.908309      0.291339
  C      -3.709573     -1.862785      0.378605
  C       2.468277     -0.596041      0.805412
  C      -4.430082     -0.671738      0.230796
  C       2.713552      0.552182     -1.319889
  C       3.833665     -0.842044      0.823425
  C       4.084461      0.293664     -1.305344
  C       4.643231     -0.409173     -0.244977
  H      -1.768567     -2.835739      0.408032
  H       1.865398     -0.937336      1.640693
  H      -5.514568     -0.662986      0.306151
  H       2.262082      1.052598     -2.172821
  H       4.740247      0.593280     -2.117340
  H       1.506426      2.597388     -0.462393
  H      -3.747918      2.391421     -0.284904
  H      -5.301557     -2.890607      0.659761
  H       5.260278     -1.116191      2.063341
  H       6.119406     -1.596353      0.048094
32
Coordinates from ORCA-job Quercetin E -1103.553527770965
  O      -0.291366     -0.755245     -0.009165
  O       0.560269      2.773649     -0.543519
  O      -4.450124      1.650756     -0.216776
  O      -2.150202      2.859216     -0.454955
  O      -4.345390     -3.037242      0.654440
  O       4.404963     -1.561788      1.845858
  O       5.996272     -0.663536     -0.240735
  C      -2.328830      0.518400     -0.109942
  C      -1.653995     -0.700102      0.067193
  C       0.444104      0.380241     -0.242668
  C       1.891252      0.110086     -0.251433
  C      -0.130045      1.609964     -0.386530
  C      -1.590264      1.747678     -0.351082
  C      -3.756810      0.520873     -0.030291
  C      -2.319326     -1.895747      0.321765
  C      -3.712712     -1.858507      0.402408
  C       2.470256     -0.620333      0.801375
  C      -4.432982     -0.668167      0.229325
  C       2.708701      0.580879     -1.295972
  C       3.839351     -0.860552      0.809333
  C       4.081273      0.325326     -1.291654
  C       4.645472     -0.403567     -0.248559
  H      -1.775108     -2.822865      0.454361
  H       1.866379     -0.988698      1.623357
  H      -5.517948     -0.657758      0.289932
  H       2.260867      1.100356     -2.138828
  H       4.725079      0.652863     -2.101720
  H       1.509100      2.591390     -0.439540
  H      -3.774639      2.361160     -0.421024
  H      -5.302956     -2.884779      0.685598
  H       5.278980     -1.173723      2.027947
  H       6.124079     -1.589825      0.030598
32
Coordinates from ORCA-job Quercetin E -1103.554330070988
  O      -0.287490     -0.740354      0.013150
  O       0.543227      2.773825     -0.620019
  O      -4.454255      1.637180     -0.257762
  O      -2.164005      2.845889     -0.551038
  O      -4.328590     -3.027841      0.730033
  O       4.369134     -1.677612      1.783431
  O       5.999156     -0.651008     -0.211911
  C      -2.328904      0.517716     -0.127201
  C      -1.650384     -0.693817      0.086247
  C       0.446455      0.388483     -0.252618
  C       1.893421      0.121496     -0.253235
  C      -0.138876      1.609827     -0.426499
  C      -1.599777      1.741394     -0.399216
  C      -3.758830      0.513792     -0.048735
  C      -2.307415     -1.886303      0.371912
  C      -3.701962     -1.853335      0.447500
  C       2.455411     -0.668416      0.765534
  C      -4.428005     -0.671877      0.240838
  C       2.730198      0.652461     -1.252870
  C       3.823234     -0.911336      0.783245
  C       4.101399      0.394405     -1.239881
  C       4.648277     -0.394104     -0.231871
  H      -1.758049     -2.806103      0.530237
  H       1.837671     -1.084014      1.554143
  H      -5.513170     -0.665043      0.300106
  H       2.298516      1.219336     -2.073236
  H       4.760120      0.767856     -2.017676
  H       1.490992      2.612754     -0.477698
  H      -3.782801      2.350840     -0.463897
  H      -5.287353     -2.880478      0.754712
  H       5.239892     -1.304241      2.006559
  H       6.126463     -1.590973      0.006814
32
Coordinates from ORCA-job Quercetin E -1103.554973191088
  O      -0.283328     -0.722186      0.060914
  O       0.522087      2.759494     -0.736524
  O      -4.459973      1.615178     -0.327795
  O      -2.178582      2.817812     -0.701114
  O      -4.311757     -3.009197      0.838544
  O       4.332120     -1.837178      1.677840
  O       6.006404     -0.632989     -0.179849
  C      -2.331537      0.514682     -0.151700
  C      -1.646099     -0.682609      0.122301
  C       0.447528      0.395752     -0.255278
  C       1.895951      0.135747     -0.245442
  C      -0.150400      1.602330     -0.484462
  C      -1.611196      1.728874     -0.473213
  C      -3.758647      0.502864     -0.080301
  C      -2.296156     -1.866580      0.453434
  C      -3.692587     -1.842216      0.513188
  C       2.440553     -0.739160      0.712208
  C      -4.424309     -0.674304      0.250934
  C       2.755442      0.755413     -1.173031
  C       3.807589     -0.982642      0.737934
  C       4.125816      0.496384     -1.153523
  C       4.654242     -0.378477     -0.208976
  H      -1.742062     -2.775019      0.654384
  H       1.807216     -1.222853      1.447579
  H      -5.509935     -0.668852      0.301107
  H       2.345537      1.392686     -1.951414
  H       4.797284      0.940453     -1.881811
  H       1.463023      2.632997     -0.525851
  H      -3.793818      2.330977     -0.533402
  H      -5.272002     -2.868684      0.846797
  H       5.201489     -1.492168      1.946137
  H       6.133807     -1.586127     -0.030510
32
Coordinates from ORCA-job Quercetin E -1103.555022215931
  O      -0.280098     -0.710243      0.083529
  O       0.512902      2.767202     -0.741946
  O      -4.465124      1.605211     -0.352590
  O      -2.185503      2.814746     -0.729838
  O      -4.302459     -3.008892      0.853298
  O       4.327724     -1.860827      1.659809
  O       6.006377     -0.645490     -0.187031
  C      -2.332806      0.517180     -0.152508
  C      -1.642937     -0.674900      0.136853
  C       0.447706      0.405324     -0.246288
  C       1.897848      0.145965     -0.237756
  C      -0.155130      1.608052     -0.487836
  C      -1.615849      1.732991     -0.476108
  C      -3.758878      0.498458     -0.091385
  C      -2.290372     -1.858366      0.473917
  C      -3.687668     -1.841145      0.522854
  C       2.440380     -0.743366      0.707976
  C      -4.422882     -0.678871      0.244636
  C       2.760131      0.770458     -1.160497
  C       3.806263     -0.992520      0.730224
  C       4.129271      0.503737     -1.145839
  C       4.655013     -0.383132     -0.211416
  H      -1.734067     -2.762799      0.686536
  H       1.805843     -1.232171      1.438727
  H      -5.508838     -0.676174      0.286049
  H       2.354214      1.411013     -1.937655
  H       4.799374      0.951570     -1.873035
  H       1.448365      2.653667     -0.501866
  H      -3.801982      2.323051     -0.560264
  H      -5.263518     -2.873441      0.852175
  H       5.201657     -1.526318      1.926422
  H       6.128743     -1.599572     -0.040047
32
Coordinates from ORCA-job Quercetin E -1103.555036186779
  O      -0.278449     -0.708095      0.090420
  O       0.512934      2.766496     -0.752901
  O      -4.467999      1.600995     -0.362096
  O      -2.186574      2.811293     -0.746106
  O      -4.299499     -3.006245      0.867920
  O       4.324171     -1.878156      1.646293
  O       6.006526     -0.646501     -0.186045
  C      -2.333744      0.515637     -0.158304
  C      -1.641426     -0.672888      0.139715
  C       0.447538      0.407044     -0.244924
  C       1.898116      0.148546     -0.235500
  C      -0.155178      1.607786     -0.496524
  C      -1.616148      1.730020     -0.493223
  C      -3.758816      0.496401     -0.096434
  C      -2.289067     -1.854333      0.483647
  C      -3.686326     -1.839340      0.531070
  C       2.438410     -0.751938      0.701085
  C      -4.422766     -0.679728      0.245501
  C       2.762793      0.783313     -1.149242
  C       3.804273     -1.000809      0.723973
  C       4.132323      0.516106     -1.134341
  C       4.655429     -0.381502     -0.208972
  H      -1.732477     -2.757135      0.702823
  H       1.802237     -1.248303      1.425118
  H      -5.508678     -0.677190      0.286353
  H       2.359654      1.430749     -1.921965
  H       4.802640      0.972333     -1.855995
  H       1.445225      2.656469     -0.499474
  H      -3.805082      2.319774     -0.569428
  H      -5.260691     -2.872144      0.864527
  H       5.198265     -1.546533      1.916028
  H       6.126088     -1.601721     -0.043897
32
Coordinates from ORCA-job Quercetin E -1103.555037537610
  O      -0.279647     -0.710531      0.090838
  O       0.516173      2.765088     -0.742657
  O      -4.465977      1.604482     -0.356115
  O      -2.184735      2.814170     -0.732119
  O      -4.303716     -3.008921      0.852388
  O       4.332759     -1.859405      1.659324
  O       6.005949     -0.649000     -0.194708
  C      -2.333524      0.516350     -0.153533
  C      -1.642676     -0.674509      0.139058
  C       0.447001      0.405503     -0.239370
  C       1.897893      0.146652     -0.233479
  C      -0.154451      1.607585     -0.486384
  C      -1.615138      1.731902     -0.481154
  C      -3.758830      0.497984     -0.093868
  C      -2.291899     -1.856934      0.476244
  C      -3.689291     -1.840790      0.522161
  C       2.442416     -0.742930      0.711067
  C      -4.424372     -0.679201      0.241454
  C       2.758199      0.772085     -1.157305
  C       3.808209     -0.992324      0.729933
  C       4.127745      0.504481     -1.146259
  C       4.654880     -0.383738     -0.214260
  H      -1.736602     -2.761460      0.691553
  H       1.809838     -1.230401      1.444285
  H      -5.510340     -0.675503      0.280687
  H       2.351783      1.414481     -1.932556
  H       4.794651      0.953947     -1.875284
  H       1.450105      2.649597     -0.497546
  H      -3.801476      2.322782     -0.561109
  H      -5.264824     -2.874185      0.848452
  H       5.207799     -1.524291      1.921511
  H       6.125799     -1.602567     -0.042149
32
Coordinates from ORCA-job Quercetin E -1103.555040090782
  O      -0.279031     -0.709804      0.091301
  O       0.515877      2.766165     -0.742182
  O      -4.465662      1.603894     -0.357442
  O      -2.185501      2.814133     -0.732069
  O      -4.302588     -3.008901      0.853678
  O       4.331623     -1.860999      1.657925
  O       6.005350     -0.649970     -0.194482
  C      -2.333137      0.516405     -0.153237
  C      -1.642110     -0.674250      0.139699
  C       0.447036      0.406016     -0.240288
  C       1.897865      0.147312     -0.234032
  C      -0.154709      1.608155     -0.486932
  C      -1.615277      1.732118     -0.480769
  C      -3.758709      0.497719     -0.094055
  C      -2.291131     -1.856615      0.477212
  C      -3.688559     -1.840682      0.523010
  C       2.441612     -0.743556      0.709783
  C      -4.423951     -0.679536      0.241747
  C       2.758535      0.773029     -1.157159
  C       3.807264     -0.993229      0.729090
  C       4.128103      0.505209     -1.145672
  C       4.654540     -0.383916     -0.214280
  H      -1.735834     -2.761043      0.692943
  H       1.808616     -1.231753      1.442213
  H      -5.509926     -0.675928      0.280782
  H       2.352605      1.416256     -1.932037
  H       4.795213      0.955155     -1.874211
  H       1.449896      2.650259     -0.497675
  H      -3.800838      2.321890     -0.563648
  H      -5.263763     -2.874638      0.849490
  H       5.205765     -1.524922      1.921924
  H       6.124525     -1.603573     -0.041528
