32
Coordinates from ORCA-job Quercetin E -1103.555040090782
  O          -0.27903068354332     -0.70980438596536      0.09130081065762
  O           0.51587692540553      2.76616457687897     -0.74218192773458
  O          -4.46566156377659      1.60389433032950     -0.35744164336666
  O          -2.18550054182695      2.81413318902578     -0.73206875808489
  O          -4.30258824238182     -3.00890086709826      0.85367827882542
  O           4.33162279497874     -1.86099877466849      1.65792452285771
  O           6.00534999110307     -0.64996971827157     -0.19448154018410
  C          -2.33313721559445      0.51640467155550     -0.15323717787385
  C          -1.64210960099136     -0.67425040658703      0.13969905529980
  C           0.44703619944968      0.40601638979430     -0.24028753395518
  C           1.89786473033182      0.14731212552549     -0.23403161536971
  C          -0.15470916357910      1.60815520499198     -0.48693230804344
  C          -1.61527662881476      1.73211755274570     -0.48076880191129
  C          -3.75870949394520      0.49771928462386     -0.09405510311472
  C          -2.29113100648937     -1.85661512302979      0.47721222440262
  C          -3.68855926566360     -1.84068213614900      0.52300954920764
  C           2.44161197162603     -0.74355595399131      0.70978268709578
  C          -4.42395107516499     -0.67953633093516      0.24174698024890
  C           2.75853479054920      0.77302863466673     -1.15715900822484
  C           3.80726444495020     -0.99322949315927      0.72908993306632
  C           4.12810264059451      0.50520904863122     -1.14567189708099
  C           4.65454023486820     -0.38391609209899     -0.21428032694441
  H          -1.73583446139410     -2.76104261780268      0.69294349114284
  H           1.80861604562361     -1.23175273540565      1.44221343076167
  H          -5.50992587850070     -0.67592774881533      0.28078187272099
  H           2.35260464031308      1.41625623787424     -1.93203684489369
  H           4.79521318089330      0.95515524551301     -1.87421130909989
  H           1.44989609441455      2.65025877964999     -0.49767481659417
  H          -3.80083759035497      2.32188992861605     -0.56364844671305
  H          -5.26376288865164     -2.87463785778385      0.84948987434309
  H           5.20576549515029     -1.52492152033394      1.92192442666600
  H           6.12452512032110     -1.60357343832668     -0.04152807840696
