21
Coordinates from ORCA-job Caffeic_Acid E -648.297502970359
  O           3.29270047142481     -1.79894563221054     -0.00215680858754
  O           4.18506142364636      0.72990170404810     -0.04268321823144
  O          -4.71122585914091      0.87805185017897      0.04501779094558
  O          -4.07215200210099     -1.28683748197866      0.06118565047793
  C           0.07345462936802     -0.01572119302407      0.00656722127594
  C           1.02727330380192     -1.05332310373314      0.01026028080154
  C           0.52868688099538      1.31568981859296     -0.01448318002524
  C           2.38927948798406     -0.77917711974768     -0.00620183822105
  C           2.82220091751871      0.55871907199219     -0.02718432466661
  C           1.89224222080404      1.59770359147105     -0.03121487752836
  C          -1.34214658545503     -0.37578156424608      0.02473842582456
  C          -2.40756604532632      0.44981718173547      0.02651248887896
  C          -3.77013690562448     -0.10716075065717      0.04586932350155
  H           0.71117932508377     -2.09236173200778      0.02620539246348
  H          -0.18018509791608      2.13717890511233     -0.01806556870270
  H           2.23845855875448      2.62970399373633     -0.04757807862476
  H          -1.56262050220726     -1.44264479746682      0.03869211585506
  H          -2.32290248261253      1.53181278353481      0.01417360114176
  H           4.18219684243850     -1.40546102649679     -0.01556849143297
  H           4.39926838826312      1.67527690614646     -0.05707078254000
  H          -5.57106696949956      0.41745859522006      0.05828487759433
