21
Coordinates from ORCA-job Caffeic_Acid E -648.293648486860
  O       3.280532     -1.780486      0.217334
  O       4.154169      0.778433      0.046539
  O      -4.606440      0.899121      0.384372
  O      -4.133715     -1.186436     -0.284897
  C       0.070400     -0.052543     -0.095302
  C       1.016919     -1.078462      0.037130
  C       0.524064      1.274264     -0.205021
  C       2.371061     -0.769939      0.083029
  C       2.807950      0.547632     -0.008024
  C       1.890527      1.578206     -0.155169
  C      -1.353968     -0.415680     -0.167268
  C      -2.369614      0.397142      0.160875
  C      -3.752953     -0.082850      0.053304
  H       0.712336     -2.119106      0.110583
  H      -0.178748      2.092296     -0.342959
  H       2.208360      2.612479     -0.238960
  H      -1.565014     -1.432215     -0.498718
  H      -2.233687      1.408535      0.519364
  H       4.148670     -1.330112      0.221167
  H       4.299938      1.737746     -0.021249
  H      -5.488789      0.485875      0.279169
21
Coordinates from ORCA-job Caffeic_Acid E -648.296258174223
  O       3.301553     -1.782920      0.202114
  O       4.169729      0.764654      0.048507
  O      -4.653359      0.897882      0.365042
  O      -4.127904     -1.204579     -0.249915
  C       0.072870     -0.047709     -0.105118
  C       1.028863     -1.073895      0.014189
  C       0.517732      1.282205     -0.193939
  C       2.385371     -0.772681      0.072412
  C       2.812665      0.557530     -0.006274
  C       1.880190      1.585189     -0.144223
  C      -1.350960     -0.409136     -0.148918
  C      -2.378293      0.409868      0.139678
  C      -3.767133     -0.079568      0.045470
  H       0.726413     -2.114510      0.077584
  H      -0.191825      2.093927     -0.321486
  H       2.200144      2.622276     -0.221775
  H      -1.570347     -1.438237     -0.427505
  H      -2.244863      1.439034      0.455279
  H       4.178658     -1.358773      0.219997
  H       4.344676      1.715811     -0.011260
  H      -5.532179      0.477533      0.285445
21
Coordinates from ORCA-job Caffeic_Acid E -648.296788228577
  O       3.307440     -1.785178      0.153563
  O       4.178554      0.749377      0.027727
  O      -4.686392      0.896365      0.289423
  O      -4.106072     -1.230320     -0.204879
  C       0.073221     -0.038343     -0.082753
  C       1.034100     -1.065920      0.007369
  C       0.515133      1.293852     -0.155239
  C       2.392517     -0.774655      0.052646
  C       2.815138      0.564851     -0.012143
  C       1.875706      1.591791     -0.120883
  C      -1.346618     -0.400039     -0.098278
  C      -2.388872      0.421636      0.131902
  C      -3.770730     -0.092375      0.071029
  H       0.730450     -2.107203      0.056829
  H      -0.199654      2.102857     -0.262125
  H       2.203853      2.627943     -0.189305
  H      -1.571823     -1.445748     -0.301373
  H      -2.267229      1.472034      0.379131
  H       4.192323     -1.383045      0.167501
  H       4.380189      1.695720     -0.020155
  H      -5.559236      0.470300      0.205314
21
Coordinates from ORCA-job Caffeic_Acid E -648.297091818972
  O       3.298214     -1.789376      0.116461
  O       4.183369      0.732913      0.023615
  O      -4.705469      0.879778      0.248013
  O      -4.082165     -1.262060     -0.126627
  C       0.072800     -0.023725     -0.068300
  C       1.031453     -1.055417      0.001407
  C       0.519884      1.308579     -0.124977
  C       2.391546     -0.776134      0.038679
  C       2.817493      0.567238     -0.010495
  C       1.880699      1.597327     -0.096685
  C      -1.343378     -0.383430     -0.074858
  C      -2.399796      0.439213      0.080380
  C      -3.771426     -0.095989      0.034773
  H       0.721676     -2.096100      0.036539
  H      -0.194642      2.119591     -0.214646
  H       2.221533      2.630216     -0.152199
  H      -1.571714     -1.440536     -0.206829
  H      -2.293062      1.505804      0.255369
  H       4.189270     -1.403201      0.128078
  H       4.406122      1.675891     -0.012194
  H      -5.570406      0.433318      0.219796
21
Coordinates from ORCA-job Caffeic_Acid E -648.297311020443
  O       3.296426     -1.790570      0.102684
  O       4.181803      0.736042      0.011654
  O      -4.699881      0.883320      0.220378
  O      -4.084345     -1.264775     -0.111667
  C       0.072691     -0.024626     -0.055983
  C       1.029932     -1.057045      0.006497
  C       0.521815      1.307421     -0.111267
  C       2.390274     -0.776605      0.033743
  C       2.818162      0.564050     -0.014275
  C       1.884186      1.595941     -0.090613
  C      -1.343784     -0.385340     -0.061232
  C      -2.399989      0.439290      0.082451
  C      -3.769927     -0.098872      0.044062
  H       0.719295     -2.097318      0.042370
  H      -0.191621      2.121153     -0.188667
  H       2.225208      2.628706     -0.141527
  H      -1.569871     -1.443821     -0.185374
  H      -2.295994      1.508303      0.240558
  H       4.185920     -1.397736      0.108393
  H       4.397343      1.680618     -0.022890
  H      -5.565643      0.435764      0.186005
21
Coordinates from ORCA-job Caffeic_Acid E -648.297415017106
  O       3.292457     -1.794626      0.066563
  O       4.182864      0.732466     -0.008194
  O      -4.703942      0.879323      0.159609
  O      -4.077595     -1.278468     -0.056114
  C       0.072677     -0.018737     -0.033017
  C       1.027422     -1.054294      0.009435
  C       0.526252      1.312672     -0.077989
  C       2.388928     -0.777893      0.020286
  C       2.820312      0.560866     -0.019026
  C       1.890032      1.596837     -0.070924
  C      -1.343040     -0.379437     -0.030950
  C      -2.404803      0.445329      0.065889
  C      -3.769457     -0.104983      0.047841
  H       0.713027     -2.093578      0.039460
  H      -0.184812      2.130633     -0.130450
  H       2.235832      2.628362     -0.110231
  H      -1.566937     -1.442749     -0.110102
  H      -2.310906      1.521771      0.167855
  H       4.182063     -1.400776      0.064077
  H       4.398259      1.677269     -0.035962
  H      -5.566633      0.423912      0.137243
21
Coordinates from ORCA-job Caffeic_Acid E -648.297473355187
  O       3.289268     -1.798767      0.026630
  O       4.184616      0.728075     -0.028066
  O      -4.710438      0.873061      0.092798
  O      -4.070390     -1.289163      0.011967
  C       0.072922     -0.012504     -0.009803
  C       1.025383     -1.051139      0.010363
  C       0.530326      1.318181     -0.041549
  C       2.387864     -0.779099      0.004999
  C       2.822314      0.558365     -0.023675
  C       1.894727      1.598116     -0.048299
  C      -1.342109     -0.372344      0.001276
  C      -2.409006      0.450799      0.043592
  C      -3.769530     -0.109557      0.048288
  H       0.707322     -2.089491      0.032572
  H      -0.178168      2.139768     -0.066212
  H       2.244810      2.628565     -0.074261
  H      -1.564278     -1.438738     -0.024768
  H      -2.324640      1.532162      0.080145
  H       4.179273     -1.405722      0.016815
  H       4.401475      1.672753     -0.047606
  H      -5.569741      0.410580      0.090094
21
Coordinates from ORCA-job Caffeic_Acid E -648.297494874048
  O       3.289724     -1.800178      0.004318
  O       4.185311      0.727372     -0.039345
  O      -4.713037      0.872158      0.055207
  O      -4.068726     -1.290515      0.051089
  C       0.073252     -0.011682      0.002921
  C       1.025470     -1.050962      0.010443
  C       0.530940      1.318950     -0.020754
  C       2.388041     -0.779568     -0.003662
  C       2.822798      0.557695     -0.026343
  C       1.895076      1.598356     -0.035221
  C      -1.341763     -0.370947      0.019264
  C      -2.409503      0.452018      0.030540
  C      -3.769740     -0.109825      0.047039
  H       0.706828     -2.089209      0.027938
  H      -0.176890      2.141432     -0.029252
  H       2.245224      2.628957     -0.053679
  H      -1.563197     -1.437827      0.023663
  H      -2.327821      1.534294      0.029528
  H       4.179597     -1.407236     -0.008923
  H       4.401814      1.672205     -0.054367
  H      -5.571398      0.408411      0.064897
21
Coordinates from ORCA-job Caffeic_Acid E -648.297499846478
  O       3.291791     -1.799709     -0.001396
  O       4.185193      0.728856     -0.042496
  O      -4.712418      0.875420      0.045718
  O      -4.070398     -1.288339      0.060659
  C       0.073453     -0.014026      0.006210
  C       1.026599     -1.052450      0.010332
  C       0.529613      1.317036     -0.015147
  C       2.388839     -0.779510     -0.005919
  C       2.822446      0.558117     -0.027130
  C       1.893319      1.597957     -0.031683
  C      -1.341886     -0.373460      0.024077
  C      -2.408284      0.451037      0.027096
  C      -3.769927     -0.108173      0.045982
  H       0.709254     -2.091101      0.026508
  H      -0.178863      2.138936     -0.019190
  H       2.241327      2.629341     -0.048255
  H      -1.563004     -1.440286      0.036748
  H      -2.325192      1.533203      0.016100
  H       4.181321     -1.406267     -0.015073
  H       4.400260      1.674026     -0.056610
  H      -5.571444      0.413293      0.058769
21
Coordinates from ORCA-job Caffeic_Acid E -648.297505155618
  O       3.292520     -1.799265     -0.003900
  O       4.185126      0.729587     -0.043631
  O      -4.711757      0.877201      0.041812
  O      -4.071496     -1.287227      0.064514
  C       0.073500     -0.015228      0.007604
  C       1.027107     -1.053104      0.010319
  C       0.528985      1.316089     -0.012908
  C       2.389169     -0.779321     -0.006852
  C       2.822287      0.558485     -0.027387
  C       1.892545      1.597784     -0.030211
  C      -1.342039     -0.374998      0.026143
  C      -2.407755      0.450260      0.025708
  C      -3.770063     -0.107425      0.045872
  H       0.710576     -2.092010      0.025896
  H      -0.179752      2.137710     -0.015317
  H       2.239326      2.629602     -0.046030
  H      -1.562756     -1.441803      0.042213
  H      -2.323743      1.532288      0.010626
  H       4.181991     -1.405737     -0.017732
  H       4.399522      1.674918     -0.057467
  H      -5.571293      0.416093      0.056029
21
Coordinates from ORCA-job Caffeic_Acid E -648.297502970359
  O       3.292700     -1.798946     -0.002157
  O       4.185061      0.729902     -0.042683
  O      -4.711226      0.878052      0.045018
  O      -4.072152     -1.286837      0.061186
  C       0.073455     -0.015721      0.006567
  C       1.027273     -1.053323      0.010260
  C       0.528687      1.315690     -0.014483
  C       2.389279     -0.779177     -0.006202
  C       2.822201      0.558719     -0.027184
  C       1.892242      1.597704     -0.031215
  C      -1.342147     -0.375782      0.024738
  C      -2.407566      0.449817      0.026512
  C      -3.770137     -0.107161      0.045869
  H       0.711179     -2.092362      0.026205
  H      -0.180185      2.137179     -0.018066
  H       2.238459      2.629704     -0.047578
  H      -1.562621     -1.442645      0.038692
  H      -2.322902      1.531813      0.014174
  H       4.182197     -1.405461     -0.015568
  H       4.399268      1.675277     -0.057071
  H      -5.571067      0.417459      0.058285
