20
Coordinates from ORCA-job Ascorbic_Acid E -684.384111828865
  O           0.10838190640778     -1.13977665914907      0.58919889016059
  O          -1.43611886469065      0.26809016201661     -1.43668348361094
  O           0.81898559216394      2.41120352158591      0.23836683816066
  O          -3.97735829961718     -0.04605242445202     -0.08154894049640
  O           3.10637557775837      0.52337234749263     -0.46223641358489
  O           2.06143273275844     -2.14251823339724     -0.04001422584908
  C          -0.33693286465061      0.22518543738415      0.74093457247962
  C          -1.64452881248881      0.41747730084602     -0.04915979690901
  C           0.82945968906772      1.06212635372437      0.26674205824276
  C          -2.75899345547645     -0.48346473596600      0.49162720734709
  C           1.85565965196620      0.24559994289187     -0.03166680823244
  C           1.41750701597390     -1.13622745274281      0.15646565874293
  H          -0.52648664522277      0.39568294245694      1.81071672790182
  H          -1.98060057609151      1.45607958033339      0.08582362223678
  H          -2.52813752999809     -1.52868117990333      0.23251339554209
  H          -2.78070888497272     -0.41425980068959      1.59293614759249
  H          -1.14260828047460     -0.64541342437801     -1.59264937382940
  H          -0.09606812306125      2.73430124751359      0.20216378218002
  H          -4.66566739998914     -0.69085889874920      0.14036336645684
  H           3.54860757033744     -0.33956602671818     -0.57619322623153
