20
Coordinates from ORCA-job Ascorbic_Acid E -684.377818820700
  O       0.125563     -1.116288      0.680918
  O      -1.320850      0.107555     -1.436369
  O       0.903043      2.409774      0.374897
  O      -3.944820     -0.136148     -0.214969
  O       3.084247      0.583972     -0.506323
  O       2.024896     -2.129181     -0.135299
  C      -0.322700      0.249655      0.787998
  C      -1.593124      0.431157     -0.062236
  C       0.855628      1.040392      0.341156
  C      -2.737340     -0.446115      0.474868
  C       1.847432      0.243348     -0.042524
  C       1.375791     -1.135290      0.137655
  H      -0.534031      0.453903      1.843914
  H      -1.907896      1.480771     -0.051993
  H      -2.529952     -1.509139      0.316347
  H      -2.901215     -0.263362      1.541272
  H      -1.461247     -0.848053     -1.558369
  H       0.002540      2.773569      0.413982
  H      -4.626618     -0.760073      0.089496
  H       3.532854     -0.258146     -0.716721
20
Coordinates from ORCA-job Ascorbic_Acid E -684.382166760102
  O       0.121117     -1.119953      0.666243
  O      -1.335668      0.166021     -1.431398
  O       0.878421      2.420904      0.334505
  O      -3.931964     -0.124313     -0.210525
  O       3.081251      0.554174     -0.505953
  O       2.017000     -2.138198     -0.112404
  C      -0.326300      0.248136      0.782150
  C      -1.605691      0.420480     -0.058406
  C       0.848407      1.060264      0.322340
  C      -2.730216     -0.461074      0.481016
  C       1.848422      0.245936     -0.040996
  C       1.389581     -1.134430      0.154201
  H      -0.542615      0.441097      1.843187
  H      -1.936619      1.465749     -0.010550
  H      -2.483939     -1.520384      0.315862
  H      -2.856974     -0.294879      1.562887
  H      -1.437534     -0.786051     -1.582803
  H      -0.025823      2.771906      0.372082
  H      -4.618541     -0.743157      0.078790
  H       3.519886     -0.299928     -0.682527
20
Coordinates from ORCA-job Ascorbic_Acid E -684.383243183272
  O       0.118487     -1.122432      0.644696
  O      -1.365053      0.231585     -1.429274
  O       0.857154      2.425440      0.292499
  O      -3.929757     -0.119938     -0.194857
  O       3.091925      0.523171     -0.489483
  O       2.030755     -2.143034     -0.059585
  C      -0.326843      0.245731      0.770922
  C      -1.619725      0.418137     -0.054797
  C       0.844333      1.074443      0.299785
  C      -2.731598     -0.474457      0.484480
  C       1.851797      0.247827     -0.038751
  C       1.395944     -1.131778      0.139664
  H      -0.540833      0.428088      1.835100
  H      -1.962111      1.459490      0.042911
  H      -2.455279     -1.527669      0.312054
  H      -2.823291     -0.328219      1.574392
  H      -1.410012     -0.719175     -1.614962
  H      -0.051724      2.764811      0.323491
  H      -4.620876     -0.738694      0.084417
  H       3.518906     -0.341027     -0.645003
20
Coordinates from ORCA-job Ascorbic_Acid E -684.383470859823
  O       0.117477     -1.125627      0.633168
  O      -1.383523      0.265969     -1.428229
  O       0.842899      2.422779      0.262797
  O      -3.934262     -0.119443     -0.184210
  O       3.096407      0.511369     -0.492329
  O       2.032039     -2.144680     -0.064903
  C      -0.325798      0.241438      0.766075
  C      -1.625288      0.422720     -0.050204
  C       0.843497      1.074962      0.290803
  C      -2.736626     -0.478258      0.484565
  C       1.855818      0.247394     -0.032588
  C       1.414623     -1.130821      0.171739
  H      -0.535120      0.419304      1.831278
  H      -1.968063      1.462291      0.075253
  H      -2.452817     -1.528736      0.306805
  H      -2.816123     -0.343361      1.576196
  H      -1.384906     -0.683737     -1.629861
  H      -0.069408      2.753944      0.287820
  H      -4.626971     -0.739797      0.090762
  H       3.528345     -0.355409     -0.617235
20
Coordinates from ORCA-job Ascorbic_Acid E -684.383687733309
  O       0.115147     -1.126369      0.631769
  O      -1.390037      0.271829     -1.429119
  O       0.842936      2.420248      0.259452
  O      -3.938839     -0.120773     -0.178648
  O       3.099090      0.512164     -0.488813
  O       2.037487     -2.145347     -0.054426
  C      -0.326656      0.240539      0.764408
  C      -1.626581      0.427059     -0.048034
  C       0.842799      1.070848      0.287839
  C      -2.738298     -0.478417      0.483872
  C       1.855234      0.245308     -0.033607
  C       1.409924     -1.132709      0.163476
  H      -0.531647      0.421312      1.829935
  H      -1.967593      1.466001      0.081091
  H      -2.457979     -1.528572      0.300297
  H      -2.818027     -0.347941      1.576149
  H      -1.366931     -0.677916     -1.628318
  H      -0.069051      2.752420      0.281291
  H      -4.629418     -0.743218      0.095549
  H       3.530639     -0.354165     -0.616463
20
Coordinates from ORCA-job Ascorbic_Acid E -684.383835364700
  O       0.111625     -1.129397      0.622459
  O      -1.407754      0.288623     -1.430370
  O       0.836263      2.415875      0.245453
  O      -3.947802     -0.115227     -0.161083
  O       3.103423      0.510223     -0.481586
  O       2.045949     -2.145748     -0.041206
  C      -0.329008      0.236672      0.757798
  C      -1.631796      0.431372     -0.045376
  C       0.839861      1.066186      0.279210
  C      -2.742329     -0.480686      0.483395
  C       1.855324      0.243065     -0.033258
  C       1.409689     -1.134868      0.160244
  H      -0.526975      0.418863      1.824450
  H      -1.970449      1.468759      0.095579
  H      -2.466841     -1.529138      0.284675
  H      -2.811575     -0.363811      1.578327
  H      -1.317003     -0.657744     -1.627189
  H      -0.076664      2.745800      0.258004
  H      -4.637162     -0.739735      0.110464
  H       3.535424     -0.356785     -0.602290
20
Coordinates from ORCA-job Ascorbic_Acid E -684.383973323392
  O       0.107007     -1.134794      0.606019
  O      -1.433360      0.303906     -1.433660
  O       0.824856      2.410185      0.227121
  O      -3.963123     -0.098238     -0.127811
  O       3.108164      0.509410     -0.470468
  O       2.056770     -2.145754     -0.027166
  C      -0.333790      0.229955      0.746448
  C      -1.640624      0.432174     -0.044406
  C       0.834284      1.060782      0.266866
  C      -2.749707     -0.484921      0.483718
  C       1.855465      0.241134     -0.032350
  C       1.411889     -1.137502      0.159196
  H      -0.523209      0.412020      1.814770
  H      -1.976134      1.468100      0.108095
  H      -2.486165     -1.530713      0.257981
  H      -2.796834     -0.391420      1.582670
  H      -1.223095     -0.625634     -1.621871
  H      -0.089668      2.735831      0.222350
  H      -4.652648     -0.723925      0.139746
  H       3.542125     -0.358296     -0.579548
20
Coordinates from ORCA-job Ascorbic_Acid E -684.384044684334
  O       0.105906     -1.137821      0.596662
  O      -1.441517      0.297723     -1.436687
  O       0.819609      2.408850      0.224633
  O      -3.971152     -0.081022     -0.107512
  O       3.108547      0.512786     -0.465181
  O       2.060713     -2.144839     -0.026783
  C      -0.336743      0.226391      0.740854
  C      -1.644692      0.427333     -0.046616
  C       0.830921      1.059758      0.263085
  C      -2.754132     -0.486810      0.484966
  C       1.855389      0.241857     -0.032026
  C       1.414172     -1.137963      0.159495
  H      -0.524387      0.405847      1.809883
  H      -1.979172      1.463905      0.103645
  H      -2.501929     -1.531584      0.242989
  H      -2.787692     -0.405970      1.585590
  H      -1.168632     -0.618158     -1.613376
  H      -0.095586      2.732512      0.208581
  H      -4.662447     -0.706272      0.156560
  H       3.545024     -0.354224     -0.571062
20
Coordinates from ORCA-job Ascorbic_Acid E -684.384089550537
  O       0.107595     -1.139514      0.590689
  O      -1.438470      0.277837     -1.439088
  O       0.818301      2.410375      0.233171
  O      -3.974657     -0.061802     -0.095746
  O       3.106905      0.519970     -0.462718
  O       2.061744     -2.142837     -0.035537
  C      -0.337899      0.224650      0.739071
  C      -1.645343      0.419397     -0.050330
  C       0.829231      1.061484      0.265008
  C      -2.757028     -0.486337      0.486931
  C       1.855593      0.244658     -0.031952
  C       1.416925     -1.136792      0.158935
  H      -0.527739      0.398891      1.808411
  H      -1.979909      1.457843      0.089368
  H      -2.516514     -1.531374      0.235129
  H      -2.783425     -0.411556      1.587976
  H      -1.144451     -0.634440     -1.601387
  H      -0.097034      2.733531      0.208928
  H      -4.668563     -0.686743      0.162771
  H       3.546939     -0.344940     -0.571930
20
Coordinates from ORCA-job Ascorbic_Acid E -684.384102288603
  O       0.108861     -1.139783      0.589327
  O      -1.435178      0.268896     -1.439154
  O       0.818822      2.411321      0.238057
  O      -3.975296     -0.054867     -0.093203
  O       3.106553      0.523189     -0.462014
  O       2.062090     -2.141928     -0.039794
  C      -0.337453      0.224553      0.739600
  C      -1.644579      0.416694     -0.051443
  C       0.829307      1.062361      0.266795
  C      -2.758081     -0.485283      0.487879
  C       1.855866      0.245936     -0.031788
  C       1.417817     -1.136015      0.157310
  H      -0.528437      0.396230      1.809075
  H      -1.979525      1.455715      0.083367
  H      -2.521918     -1.530812      0.234181
  H      -2.783920     -0.411337      1.588778
  H      -1.144885     -0.645447     -1.596386
  H      -0.096412      2.734686      0.211039
  H      -4.669598     -0.681404      0.160541
  H       3.548166     -0.340405     -0.574466
20
Coordinates from ORCA-job Ascorbic_Acid E -684.384096824968
  O       0.109339     -1.140049      0.588345
  O      -1.433907      0.264536     -1.438857
  O       0.818837      2.411586      0.240122
  O      -3.976117     -0.050115     -0.089940
  O       3.106551      0.524836     -0.461311
  O       2.062524     -2.141554     -0.041529
  C      -0.337131      0.224483      0.739969
  C      -1.644171      0.415612     -0.051706
  C       0.829308      1.062545      0.267530
  C      -2.758917     -0.484516      0.488748
  C       1.855947      0.246456     -0.031519
  C       1.418195     -1.135686      0.156006
  H      -0.528297      0.394570      1.809592
  H      -1.979599      1.454726      0.080954
  H      -2.525958     -1.530253      0.233062
  H      -2.783848     -0.412005      1.589661
  H      -1.143476     -0.650226     -1.593343
  H      -0.096321      2.734953      0.210091
  H      -4.669906     -0.679714      0.157548
  H       3.549147     -0.337884     -0.575724
20
Coordinates from ORCA-job Ascorbic_Acid E -684.384100111203
  O       0.109297     -1.140165      0.588091
  O      -1.433826      0.263682     -1.438270
  O       0.818731      2.411514      0.240420
  O      -3.976636     -0.047534     -0.087055
  O       3.106551      0.525190     -0.461145
  O       2.062582     -2.141623     -0.041771
  C      -0.336927      0.224562      0.740353
  C      -1.643996      0.415718     -0.051294
  C       0.829334      1.062427      0.267664
  C      -2.759257     -0.483951      0.489608
  C       1.855899      0.246445     -0.031345
  C       1.418227     -1.135684      0.155489
  H      -0.527785      0.394010      1.810073
  H      -1.979906      1.454689      0.081202
  H      -2.527994     -1.529689      0.232515
  H      -2.783308     -0.412675      1.590618
  H      -1.142674     -0.650952     -1.592078
  H      -0.096388      2.734770      0.207870
  H      -4.669209     -0.681257      0.153096
  H       3.549486     -0.337178     -0.576342
20
Coordinates from ORCA-job Ascorbic_Acid E -684.384096594021
  O       0.108976     -1.140152      0.588307
  O      -1.434552      0.264824     -1.437547
  O       0.818657      2.411322      0.239815
  O      -3.977018     -0.046162     -0.084313
  O       3.106509      0.524775     -0.461402
  O       2.062311     -2.141938     -0.041278
  C      -0.336861      0.224727      0.740668
  C      -1.644072      0.416367     -0.050481
  C       0.829366      1.062223      0.267417
  C      -2.759303     -0.483555      0.490548
  C       1.855805      0.246156     -0.031344
  C       1.418057     -1.135878      0.155583
  H      -0.527171      0.394232      1.810449
  H      -1.980275      1.455132      0.082846
  H      -2.528797     -1.529153      0.232402
  H      -2.782308     -0.413320      1.591695
  H      -1.142144     -0.649320     -1.591827
  H      -0.096443      2.734426      0.205132
  H      -4.667886     -0.684763      0.147543
  H       3.549348     -0.337644     -0.576514
20
Coordinates from ORCA-job Ascorbic_Acid E -684.384106283167
  O       0.108339     -1.139866      0.589041
  O      -1.435998      0.267674     -1.436503
  O       0.818803      2.411150      0.238356
  O      -3.977509     -0.045096     -0.080633
  O       3.106347      0.523582     -0.462121
  O       2.061513     -2.142537     -0.039988
  C      -0.336900      0.225181      0.741053
  C      -1.644462      0.417446     -0.049096
  C       0.829413      1.062071      0.266784
  C      -2.759123     -0.483394      0.491764
  C       1.855628      0.245611     -0.031546
  C       1.417570     -1.136228      0.156325
  H      -0.526365      0.395340      1.810880
  H      -1.980892      1.455933      0.085838
  H      -2.528937     -1.528566      0.231912
  H      -2.780521     -0.414863      1.593121
  H      -1.141492     -0.645583     -1.592064
  H      -0.096238      2.734156      0.201234
  H      -4.665721     -0.690521      0.139784
  H       3.548744     -0.339190     -0.576442
20
Coordinates from ORCA-job Ascorbic_Acid E -684.384111828865
  O       0.108382     -1.139777      0.589199
  O      -1.436119      0.268090     -1.436683
  O       0.818986      2.411204      0.238367
  O      -3.977358     -0.046052     -0.081549
  O       3.106376      0.523372     -0.462236
  O       2.061433     -2.142518     -0.040014
  C      -0.336933      0.225185      0.740935
  C      -1.644529      0.417477     -0.049160
  C       0.829460      1.062126      0.266742
  C      -2.758993     -0.483465      0.491627
  C       1.855660      0.245600     -0.031667
  C       1.417507     -1.136227      0.156466
  H      -0.526487      0.395683      1.810717
  H      -1.980601      1.456080      0.085824
  H      -2.528138     -1.528681      0.232513
  H      -2.780709     -0.414260      1.592936
  H      -1.142608     -0.645413     -1.592649
  H      -0.096068      2.734301      0.202164
  H      -4.665667     -0.690859      0.140363
  H       3.548608     -0.339566     -0.576193
